 vasp.5.3.5 31Mar14 (build Aug 29 2014 19:41:47) complex

 executed on             LinuxIFC date 2019.01.22  17:58:42

 INCAR:
 POTCAR:    PAW_PBE Fe 06Sep2000
 POTCAR:    PAW_PBE O 08Apr2002
 POTCAR:    PAW_PBE F 08Apr2002
 POTCAR:    PAW_PBE Fe 06Sep2000
   VRHFIN =Fe:  d7 s1

   TITEL  = PAW_PBE Fe 06Sep2000
   POMASS =   55.847; ZVAL   =    8.000    mass and valenz
   ENMAX  =  267.882; ENMIN  =  200.911 eV

 POTCAR:    PAW_PBE O 08Apr2002
   VRHFIN =O: s2p4

   TITEL  = PAW_PBE O 08Apr2002
   POMASS =   16.000; ZVAL   =    6.000    mass and valenz
   ENMAX  =  400.000; ENMIN  =  300.000 eV

 POTCAR:    PAW_PBE F 08Apr2002
   VRHFIN =F: s2p5

   TITEL  = PAW_PBE F 08Apr2002
   POMASS =   18.998; ZVAL   =    7.000    mass and valenz
   ENMAX  =  400.000; ENMIN  =  300.000 eV

 Optimization of the real space projectors (new method)

 maximal supplied QI-value         = 16.25
 optimisation between [QCUT,QGAM] = [ 10.24, 20.48] = [ 29.35,117.42] Ry
 Optimized for a Real-space Cutoff    1.51 Angstroem

   l    n(q)    QCUT    max X(q) W(low)/X(q) W(high)/X(q)  e(spline)
   2      8    10.239    80.901    0.43E-03    0.67E-03    0.20E-06
   2      8    10.239    75.754    0.44E-03    0.68E-03    0.20E-06
   0      9    10.239    58.752    0.81E-04    0.41E-04    0.71E-07
   0      9    10.239    30.679    0.75E-04    0.39E-04    0.65E-07
   1      9    10.239    17.977    0.50E-04    0.16E-03    0.11E-06
   1      9    10.239    13.559    0.39E-04    0.13E-03    0.98E-07
 Optimization of the real space projectors (new method)

[...]

   l    n(q)    QCUT    max X(q) W(low)/X(q) W(high)/X(q)  e(spline)
   0      8    10.150    20.381    0.22E-03    0.32E-03    0.29E-06
   0      8    10.150    15.268    0.23E-03    0.35E-03    0.30E-06
   1      8    10.150     5.964    0.46E-03    0.53E-03    0.21E-06
   1      8    10.150     5.382    0.38E-03    0.45E-03    0.19E-06
 Optimization of the real space projectors (new method)

 maximal supplied QI-value         = 24.76
 optimisation between [QCUT,QGAM] = [ 10.15, 20.30] = [ 28.85,115.39] Ry
 Optimized for a Real-space Cutoff    1.38 Angstroem

   l    n(q)    QCUT    max X(q) W(low)/X(q) W(high)/X(q)  e(spline)
   0      8    10.150    14.049    0.15E-03    0.22E-03    0.24E-06
   0      8    10.150     8.945    0.21E-03    0.31E-03    0.30E-06
   1      8    10.150     7.086    0.42E-03    0.48E-03    0.23E-06
   1      8    10.150     6.747    0.37E-03    0.43E-03    0.21E-06
  PAW_PBE Fe 06Sep2000                  :
  PAW_PBE O 08Apr2002                   :
  PAW_PBE F 08Apr2002                   :

 POSCAR: Fe8 O2 F14
  positions in direct lattice
 exchange correlation table for  LEXCH =        8
   RHO(1)=    0.500       N(1)  =     2000
   RHO(2)=  100.500       N(2)  =     4000

 ion  position               nearest neighbor table
   1  0.247  0.249  0.745-  12 2.05  13 2.05  18 2.05  15 2.13  19 2.13  23 2.14
   2  0.247  0.751  0.246-  17 2.04  11 2.05  16 2.11  24 2.12  14 2.13  20 2.15
   3  0.515  0.245  0.493-   9 2.04  16 2.05  22 2.11  17 2.15  19 2.21  13 2.26   5 3.00
   4  0.515  0.755  0.999-  15 2.07  10 2.10  21 2.10  14 2.17  20 2.17  18 2.21   6 3.06
   5  0.754  0.231  0.265-   9 1.84  20 1.98  24 2.00  11 2.03  17 2.04  21 2.12   3 3.00
   6  0.754  0.769  0.765-  10 1.84  23 1.98  19 2.01  12 2.03  18 2.04  22 2.13   4 3.06
   7  0.990  0.241  0.997-  10 1.98  14 2.10  15 2.16  23 2.17  21 2.19  11 2.20
   8  0.990  0.759  0.498-   9 2.01  13 2.11  16 2.16  24 2.18  12 2.19  22 2.19
   9  0.779  0.058  0.417-   5 1.84   8 2.01   3 2.04
  10  0.785  0.942  0.917-   6 1.84   7 1.98   4 2.10
  11  0.014  0.058  0.183-   5 2.03   2 2.05   7 2.20
  12  0.014  0.942  0.683-   6 2.03   1 2.05   8 2.19
  13  0.222  0.449  0.578-   1 2.05   8 2.11   3 2.26
  14  0.227  0.551  0.071-   7 2.10   2 2.13   4 2.17
  15  0.279  0.052  0.922-   4 2.07   1 2.13   7 2.16
  16  0.279  0.947  0.422-   3 2.05   2 2.11   8 2.16
  17  0.482  0.454  0.316-   5 2.04   2 2.04   3 2.15
  18  0.482  0.546  0.816-   6 2.04   1 2.05   4 2.21
  19  0.523  0.036  0.674-   6 2.01   1 2.13   3 2.21
  20  0.523  0.973  0.174-   5 1.98   2 2.15   4 2.17
  21  0.722  0.438  0.091-   4 2.10   5 2.12   7 2.19
  22  0.722  0.557  0.591-   3 2.11   6 2.13   8 2.19
  23  0.969  0.457  0.820-   6 1.98   1 2.14   7 2.17
  24  0.973  0.543  0.320-   5 2.00   2 2.12   8 2.18

IMPORTANT INFORMATION: All symmetrisations will be switched off!
NOSYMM: (Re-)initialisation of all symmetry stuff for point group C_1.

 KPOINTS: Automatic mesh

Automatic generation of k-mesh.
Space group operators:
 irot       det(A)        alpha          n_x          n_y          n_z        tau_x        tau_y        tau_z
    1     1.000000     0.000000     1.000000     0.000000     0.000000     0.000000     0.000000     0.000000

 Subroutine IBZKPT returns following result:

 Found      8 irreducible k-points:

 Following reciprocal coordinates:
            Coordinates               Weight
  0.000000  0.000000  0.000000      1.000000
  0.500000  0.000000  0.000000      1.000000
  0.000000  0.500000  0.000000      1.000000
  0.500000  0.500000  0.000000      1.000000
 -0.000000  0.000000  0.500000      1.000000
  0.500000  0.000000  0.500000      1.000000
 -0.000000  0.500000  0.500000      1.000000
  0.500000  0.500000  0.500000      1.000000

 Following cartesian coordinates:
            Coordinates               Weight
  0.000000  0.000000  0.000000      1.000000
  0.087170  0.000000  0.000000      1.000000
  0.000000  0.104484  0.000000      1.000000
  0.087170  0.104484  0.000000      1.000000
  0.006329  0.000000  0.045939      1.000000
  0.093499  0.000000  0.045939      1.000000
  0.006329  0.104484  0.045939      1.000000
  0.093499  0.104484  0.045939      1.000000

 I would recommend the setting:
   dimension x,y,z NGX =    28 NGY =   23 NGZ =   53
 SYSTEM =  tssm
 POSCAR =  Fe8 O2 F14

 Startparameter for this run:
   NWRITE =      2    write-flag & timer
   PREC   = normal    normal or accurate (medium, high low for compatibility)
   ISTART =      0    job   : 0-new  1-cont  2-samecut
   ICHARG =      2    charge: 1-file 2-atom 10-const
   ISPIN  =      1    spin polarized calculation?
   LNONCOLLINEAR =      F non collinear calculations
   LSORBIT =      F    spin-orbit coupling
   INIWAV =      1    electr: 0-lowe 1-rand  2-diag
   LASPH  =      F    aspherical Exc in radial PAW
   METAGGA=      F    non-selfconsistent MetaGGA calc.

 Electronic Relaxation 1
   ENCUT  =  400.0 eV  29.40 Ry    5.42 a.u.   9.44  7.80 17.75*2*pi/ulx,y,z
   ENINI  =  400.0     initial cutoff
   ENAUG  =  613.6 eV  augmentation charge cutoff
   NELM   =    300;   NELMIN=  2; NELMDL=-12     # of ELM steps
   EDIFF  = 0.1E-03   stopping-criterion for ELM
   LREAL  =      T    real-space projection
   NLSPLINE    = F    spline interpolate recip. space projectors
   LCOMPAT=      F    compatible to vasp.4.4
   GGA_COMPAT  = T    GGA compatible to vasp.4.4-vasp.4.6
   LMAXPAW     = -100 max onsite density
   LMAXMIX     =    2 max onsite mixed and CHGCAR
   VOSKOWN=      0    Vosko Wilk Nusair interpolation
   ROPT   =   -0.00050  -0.00050  -0.00050
 Ionic relaxation
   EDIFFG = 0.1E-02   stopping-criterion for IOM
   NSW    =      1    number of steps for IOM
   NBLOCK =      1;   KBLOCK =      1    inner block; outer block
   IBRION =      1    ionic relax: 0-MD 1-quasi-New 2-CG
   NFREE  =      0    steps in history (QN), initial steepest desc. (CG)
   ISIF   =      2    stress and relaxation
   IWAVPR =     11    prediction:  0-non 1-charg 2-wave 3-comb
   ISYM   =      0    0-nonsym 1-usesym 2-fastsym
   LCORR  =      T    Harris-Foulkes like correction to forces

   POTIM  = 0.5000    time-step for ionic-motion
   TEIN   =    0.0    initial temperature
   TEBEG  =    0.0;   TEEND  =   0.0 temperature during run
   SMASS  =  -3.00    Nose mass-parameter (am)
   estimated Nose-frequenzy (Omega)   =  0.10E-29 period in steps =****** mass=  -0.766E-27a.u.
   SCALEE = 1.0000    scale energy and forces
   NPACO  =    256;   APACO  = 16.0  distance and # of slots for P.C.
   PSTRESS=    0.0 pullay stress

  Mass of Ions in am
   POMASS =  55.85 16.00 19.00
  Ionic Valenz
   ZVAL   =   8.00  6.00  7.00
  Atomic Wigner-Seitz radii
  virtual crystal weights
   VCA    =   1.00  1.00  1.00
   NELECT =     174.0000    total number of electrons
   NUPDOWN=      -1.0000    fix difference up-down

 DOS related values:
   EMIN   =  10.00;   EMAX   =-10.00  energy-range for DOS
   EFERMI =   0.00
   ISMEAR =     1;   SIGMA  =   0.20  broadening in eV -4-tet -1-fermi 0-gaus

 Electronic relaxation 2 (details)
   IALGO  =     48    algorithm
   LDIAG  =      T    sub-space diagonalisation (order eigenvalues)
   LSUBROT=      F    optimize rotation matrix (better conditioning)
   TURBO    =      0    0=normal 1=particle mesh
   IRESTART =      0    0=no restart 2=restart with 2 vectors
   NREBOOT  =      0    no. of reboots
   NMIN     =      0    reboot dimension
   EREF     =   0.00    reference energy to select bands
   IMIX   =      4    mixing-type and parameters
     AMIX     =   0.40;   BMIX     =  1.00
     AMIX_MAG =   1.60;   BMIX_MAG =  1.00
     AMIN     =   0.01
     WC   =   100.;   INIMIX=   1;  MIXPRE=   1;  MAXMIX= -45

 Intra band minimization:
   WEIMIN = 0.0010     energy-eigenvalue tresh-hold
   EBREAK =  0.24E-06  absolut break condition
   DEPER  =   0.30     relativ break condition

   TIME   =   0.40     timestep for ELM

  volume/ion in A,a.u.               =      12.45        84.00
  Fermi-wavevector in a.u.,A,eV,Ry     =   1.367164  2.583565 25.431145  1.869136
  Thomas-Fermi vector in A             =   2.493240

 Write flags
   LWAVE  =      F    write WAVECAR
   LCHARG =      T    write CHGCAR
   LVTOT  =      F    write LOCPOT, total local potential
   LVHAR  =      F    write LOCPOT, Hartree potential only
   LELF   =      F    write electronic localiz. function (ELF)
   LORBIT =      0    0 simple, 1 ext, 2 COOP (PROOUT)

 Dipole corrections
   LMONO  =      F    monopole corrections only (constant potential shift)
   LDIPOL =      F    correct potential (dipole corrections)
   IDIPOL =      0    1-x, 2-y, 3-z, 4-all directions
   EPSILON=  1.0000000 bulk dielectric constant

 Exchange correlation treatment:
   GGA     =    --    GGA type
   VOSKOWN=      0    Vosko Wilk Nusair interpolation
   LHFCALC =     F    Hartree Fock is set to
   LHFONE  =     F    Hartree Fock one center treatment
   AEXX    =    0.0000 exact exchange contribution

 Linear response parameters
   LEPSILON=     F    determine dielectric tensor
   LRPA    =     F    only Hartree local field effects (RPA)
   LNABLA  =     F    use nabla operator in PAW spheres
   LVEL    =     F    velocity operator in full k-point grid
   LINTERFAST=   F  fast interpolation
   KINTER  =     0    interpolate to denser k-point grid
   CSHIFT  =0.1000    complex shift for real part using Kramers Kronig
   OMEGAMAX=  -1.0    maximum frequency
   DEG_THRESHOLD= 0.2000000E-02 threshold for treating states as degnerate
   RTIME   =    0.100 relaxation time in fs

 Orbital magnetization related:
[...]
 Maximum number of real-space cells 3x 4x 2
 Maximum number of reciprocal cells 2x 2x 4

 FEWALD executed in parallel

----------------------------------------- Iteration    1(   1)  ---------------------------------------

 eigenvalue-minimisations  :   832
 total energy-change (2. order) : 0.2128191E+04  (-0.6545655E+04)
 number of electron     174.0000000 magnetization
 augmentation part      174.0000000 magnetization

 Free energy of the ion-electron system (eV)
  alpha Z        PSCENC =       634.09262729
  Ewald energy   TEWEN  =    -10607.91764775
  -Hartree energ DENC   =     -4394.27931245
  -exchange      EXHF   =         0.00000000
  -V(xc)+E(xc)   XCENC  =       595.51344532
  PAW double counting   =     12680.77512887   -12817.41364524
  entropy T*S    EENTRO =        -0.03314004
  eigenvalues    EBANDS =      1186.17925934
  atomic energy  EATOM  =     14851.27451460
  free energy    TOTEN  =      2128.19122993 eV

  energy without entropy =     2128.22436997  energy(sigma->0) =     2128.20227661

[...]

 eigenvalue-minimisations  :   832
 total energy-change (2. order) :-0.1464999E+04  (-0.1649753E+04)
 number of electron     174.0000000 magnetization
 augmentation part      174.0000000 magnetization

[...]

 Broyden mixing:
  rms(total) = 0.38448E+01    rms(broyden)= 0.38304E+01
  rms(prec ) = 0.46406E+01
  weight for this iteration     100.00

[...]

 eigenvalues of (default mixing * dielectric matrix)
  average eigenvalue GAMMA=   0.2964
  0.2964

[...]

 eigenvalue-minimisations  :  1152
 total energy-change (2. order) : 0.3383081E-03  (-0.3674180E-04)
 number of electron     173.9999982 magnetization
 augmentation part       53.0394296 magnetization

[...]

 Broyden mixing:
  rms(total) = 0.35802E-01    rms(broyden)= 0.35797E-01
  rms(prec ) = 0.50172E-01
  weight for this iteration     100.00

 eigenvalues of (default mixing * dielectric matrix)
  average eigenvalue GAMMA=   0.9290
  4.4422  4.4422  2.1536  2.1536  2.1314  1.3158  1.3158  0.9383  0.9383  0.7837
  0.7837  0.7805  0.6039  0.6039  0.6122  0.4917  0.4186  0.3921  0.3921  0.3097
  0.2078  0.2078  0.1317  0.1317  0.0618  0.0576  0.0524  0.0459  0.0396

[...]

----------------------------------------- Iteration    1(  42)  ---------------------------------------

 eigenvalue-minimisations  :   887
 total energy-change (2. order) :-0.2445148E-04  (-0.1139674E-04)
 number of electron     173.9999982 magnetization
 augmentation part       53.0400297 magnetization

 Free energy of the ion-electron system (eV)
  alpha Z        PSCENC =       634.09262729
  Ewald energy   TEWEN  =    -10607.91764775
  -Hartree energ DENC   =     -4470.36708652
  -exchange      EXHF   =         0.00000000
  -V(xc)+E(xc)   XCENC  =       604.94681264
  PAW double counting   =     14888.33278305   -15029.53855972
  entropy T*S    EENTRO =         0.11705301
  eigenvalues    EBANDS =     -1003.02651621
  atomic energy  EATOM  =     14851.27451460
  free energy    TOTEN  =      -132.08601961 eV

  energy without entropy =     -132.20307262  energy(sigma->0) =     -132.12503728

 average (electrostatic) potential at core
  the test charge radii are     1.0103  0.7215  0.7167
  (the norm of the test charge is              1.0000)
       1 -47.6025       2 -47.5824       3 -47.6803       4 -47.6411       5 -48.0196
       6 -48.0265       7 -47.7265       8 -47.7042       9 -74.7358      10 -74.6551
      11 -79.0633      12 -79.0624      13 -78.7111      14 -78.7172      15 -78.8519
      16 -78.9689      17 -79.0507      18 -78.8700      19 -78.8865      20 -79.0211
      21 -78.6307      22 -78.5661      23 -78.9594      24 -78.9922

 E-fermi :   1.6652     XC(G=0):  -9.9800     alpha+bet : -7.6761

 k-point     1 :       0.0000    0.0000    0.0000
  band No.  band energies     occupation
      1     -22.6915      2.00000
      2     -22.5846      2.00000
      3     -22.3796      2.00000
      4     -22.3454      2.00000
      5     -22.2714      2.00000
      6     -22.2518      2.00000
      7     -22.2295      2.00000
      8     -22.1966      2.00000
      9     -22.1422      2.00000
     10     -22.0922      2.00000
     11     -21.9856      2.00000
     12     -21.9813      2.00000
     13     -21.8826      2.00000
     14     -21.8172      2.00000
     15     -16.8347      2.00000
     16     -16.7315      2.00000
     17      -6.1379      2.00000
     18      -5.7864      2.00000
     19      -5.3657      2.00000
     20      -5.2311      2.00000
     21      -5.1948      2.00000
     22      -5.0731      2.00000
     23      -4.9924      2.00000
     24      -4.9502      2.00000
     25      -4.8520      2.00000
     26      -4.8342      2.00000
     27      -4.6943      2.00000
     28      -4.5728      2.00000
     29      -4.5666      2.00000
     30      -4.5497      2.00000
     31      -4.4219      2.00000
     32      -4.4168      2.00000
     33      -4.3806      2.00000
     34      -4.3019      2.00000
     35      -4.2992      2.00000
     36      -4.2422      2.00000
     37      -4.1964      2.00000
     38      -4.1646      2.00000
     39      -4.0684      2.00000
     40      -4.0064      2.00000
     41      -3.9859      2.00000
     42      -3.9537      2.00000
     43      -3.8994      2.00000
     44      -3.8758      2.00000
     45      -3.7210      2.00000
     46      -3.6282      2.00000
     47      -3.4574      2.00000
     48      -3.4463      2.00000
     49      -3.3614      2.00000
     50      -3.2726      2.00000
     51      -3.0792      2.00000
     52      -3.0466      2.00000
     53      -2.9520      2.00000
     54      -2.9401      2.00000
     55      -2.7931      2.00000
     56      -2.7483      2.00000
     57      -2.7322      2.00000
     58      -2.6771      2.00000
     59      -2.5375      2.00000
     60      -2.4665      2.00000
[...]
     90       1.8184      0.03824
     91       1.8774     -0.06074
     92       1.9194     -0.07030
     93       1.9551     -0.05965
     94       2.0062     -0.03664
     95       2.0805     -0.01240
     96       2.1121     -0.00698
     97       2.3898     -0.00000
     98       2.3995     -0.00000
     99       2.7015     -0.00000
    100       2.8129     -0.00000
    101       2.8866     -0.00000
    102       2.8932     -0.00000
    103       3.0396     -0.00000
    104       3.1895     -0.00000

[...]

 k-point     8 :       0.5000    0.5000    0.5000
  band No.  band energies     occupation
      1     -22.4729      2.00000
      2     -22.4325      2.00000
      3     -22.4023      2.00000
      4     -22.3810      2.00000
      5     -22.3418      2.00000
      6     -22.3134      2.00000
      7     -22.2422      2.00000
      8     -22.2154      2.00000
      9     -22.1749      2.00000
     10     -22.1179      2.00000
     11     -22.0076      2.00000
     12     -21.9889      2.00000
     13     -21.9062      2.00000
     14     -21.8412      2.00000
     15     -16.8428      2.00000
     16     -16.7405      2.00000
     17      -5.6667      2.00000
     18      -5.6549      2.00000
     19      -5.5303      2.00000
     20      -5.5211      2.00000
     21      -5.3019      2.00000
     22      -5.2613      2.00000
     23      -5.1706      2.00000
     24      -5.1517      2.00000
     25      -4.8868      2.00000
     26      -4.8687      2.00000
     27      -4.7387      2.00000
     28      -4.7208      2.00000
     29      -4.5413      2.00000
     30      -4.4976      2.00000
     31      -4.4164      2.00000
     32      -4.4055      2.00000
     33      -4.2206      2.00000
     34      -4.1916      2.00000
     35      -4.1376      2.00000
     36      -4.0874      2.00000
     37      -4.0818      2.00000
     38      -4.0514      2.00000
     39      -3.9974      2.00000
     40      -3.9684      2.00000
     41      -3.9112      2.00000
     42      -3.8640      2.00000
     43      -3.6618      2.00000
     44      -3.6241      2.00000
     45      -3.4343      2.00000
     46      -3.4236      2.00000
     47      -3.3940      2.00000
     48      -3.3481      2.00000
     49      -3.3165      2.00000
     50      -3.2540      2.00000
     51      -3.1848      2.00000
     52      -3.1095      2.00000
     53      -3.0271      2.00000
     54      -3.0191      2.00000
     55      -2.9752      2.00000
     56      -2.9398      2.00000
     57      -2.8003      2.00000
     58      -2.7577      2.00000
     59      -2.7444      2.00000
     60      -2.7014      2.00000
[...]
     90       1.7991      0.10233
     91       1.9230     -0.06974
     92       1.9255     -0.06929
     93       2.0083     -0.03573
     94       2.0298     -0.02712
     95       2.1124     -0.00694
     96       2.1146     -0.00665
     97       2.3363     -0.00002
     98       2.3399     -0.00002
     99       2.4998     -0.00000
    100       2.5297     -0.00000
    101       2.6494     -0.00000
    102       2.6744     -0.00000
    103       3.0330     -0.00000
    104       3.0477     -0.00000

 soft charge-density along one line, spin component           1
         0         1         2         3         4         5         6         7         8         9
 total charge-density along one line

------------------------ aborting loop because EDIFF is reached ----------------------------------------

  FORCE on cell =-STRESS in cart. coord.  units (eV):
  Direction    XX          YY          ZZ          XY          YZ          ZX
  Alpha Z   634.09263   634.09263   634.09263
  Ewald   -3660.79313 -3842.47821 -3104.67843    11.14729   -12.13501  -354.01961
  Hartree  1428.28024  1323.54283  1718.54761     6.25653    -5.86081  -203.74528
  E(xc)    -923.05806  -923.31922  -922.30116     0.01464    -0.02174    -0.42510
  Local    -342.79587   -64.22171 -1160.83871   -17.21251    17.61204   542.86983
  n-local  -852.03475  -852.19207  -849.52910     0.09184    -0.18363    -0.59277
  augment   568.33045   569.54394   563.16335    -0.01169     0.06772     2.03063
  Kinetic  3099.56899  3108.10011  3067.15611    -0.23219     0.49346    16.84567
  Fock        0.00000     0.00000     0.00000     0.00000     0.00000     0.00000
  Total     -48.40950   -46.93170   -54.38770     0.05390    -0.02797     2.96337
  in kB    -259.61450  -251.68922  -291.67486     0.28908    -0.14998    15.89222

 VOLUME and BASIS-vectors are now :
  energy-cutoff  :      400.00
  volume of cell :      298.75
      direct lattice vectors                 reciprocal lattice vectors
     5.735919000  0.000000000 -0.790267000     0.174339979  0.000000000  0.000000000
     0.000000000  4.785442000  0.000000000     0.000000000  0.208967113  0.000000000
     0.000000000  0.000000000 10.883966000     0.012658541  0.000000000  0.091878273

  length of vectors
     5.790102651  4.785442000 10.883966000     0.174339979  0.208967113  0.092746190

 FORCES acting on ions
    electron-ion (+dipol)            ewald-force                    non-local-force                 convergence-correction
   -.114E+01 0.338E+01 -.423E+01   0.138E+01 -.311E+01 0.350E+01   -.824E-01 -.283E+00 0.724E+00   0.225E-02 0.182E-02 0.544E-01
   -.103E+00 0.348E+01 0.932E+01   -.314E-01 -.353E+01 -.935E+01   0.252E+00 0.115E+00 -.316E-02   -.970E-02 0.166E-02 -.545E-01
   0.871E+01 -.180E+02 -.242E+02   -.592E+01 0.160E+02 0.229E+02   -.174E+01 0.123E+01 0.111E+01   0.358E-01 -.199E-02 0.308E-01
   -.101E+02 0.899E+01 -.156E+01   0.123E+02 -.736E+01 0.554E+00   -.118E+01 -.100E+01 0.367E+00   0.170E-01 0.930E-03 -.472E-01
   -.104E+02 0.537E+00 0.651E+01   0.111E+02 -.204E+01 -.455E+01   -.458E+00 0.136E+01 -.194E+01   0.924E-02 -.712E-02 -.531E-01
   0.377E+01 -.637E+01 0.119E+02   -.314E+01 0.774E+01 -.974E+01   -.501E+00 -.114E+01 -.218E+01   -.132E-02 -.608E-02 0.616E-01
   0.386E+01 -.652E+01 -.119E+02   -.593E+01 0.404E+01 0.105E+02   0.119E+01 0.121E+01 0.820E+00   -.329E-01 -.671E-02 -.329E-01
   0.316E+01 0.368E+01 -.177E+01   -.531E+01 -.144E+01 0.791E+00   0.110E+01 -.107E+01 0.649E+00   -.119E-01 -.227E-02 0.477E-01
   -.276E+02 0.416E+02 -.629E+02   0.296E+02 -.450E+02 0.676E+02   -.262E+01 0.347E+01 -.389E+01   0.116E+00 -.748E-01 -.426E-02
   -.157E+02 -.312E+02 -.642E+02   0.170E+02 0.335E+02 0.694E+02   -.187E+01 -.210E+01 -.416E+01   -.820E-01 -.486E-01 0.404E-01
   -.370E+02 0.254E+02 0.309E+02   0.389E+02 -.245E+02 -.331E+02   -.147E+01 -.133E+01 0.204E+01   -.108E+00 0.420E-01 -.435E-01
   -.348E+02 -.244E+02 0.329E+02   0.366E+02 0.236E+02 -.348E+02   -.155E+01 0.126E+01 0.166E+01   -.166E-03 -.598E-01 -.369E-01
   0.134E+02 -.178E+02 0.466E+02   -.121E+02 0.196E+02 -.505E+02   -.120E+01 -.204E+01 0.385E+01   -.114E+00 0.981E-01 0.216E-01
   0.218E+02 0.150E+02 0.246E+02   -.220E+02 -.166E+02 -.267E+02   0.656E-01 0.183E+01 0.263E+01   0.737E-01 0.153E-01 -.154E+00
   -.220E+02 0.123E+02 -.242E+02   0.222E+02 -.126E+02 0.253E+02   -.497E+00 0.643E+00 -.130E+01   0.101E+00 -.857E-01 0.360E-01
   -.160E+02 -.103E+02 -.318E+02   0.163E+02 0.100E+02 0.334E+02   -.342E+00 0.136E-01 -.201E+01   -.116E+00 -.473E-01 0.106E+00
   0.348E+02 -.380E+02 -.207E+02   -.370E+02 0.402E+02 0.200E+02   0.188E+01 -.223E+01 0.140E+01   0.863E-01 -.238E-01 -.677E-01
   0.321E+02 0.291E+02 -.260E+02   -.343E+02 -.308E+02 0.263E+02   0.196E+01 0.164E+01 0.215E+00   0.141E-01 0.670E-01 0.131E+00
   0.104E+02 0.292E+01 0.274E+02   -.120E+02 -.353E+01 -.307E+02   0.117E+01 0.114E+01 0.318E+01   0.368E-01 -.495E-01 0.821E-01
   0.178E+02 0.347E+01 0.235E+02   -.208E+02 -.209E+01 -.261E+02   0.251E+01 -.208E+01 0.275E+01   0.835E-01 -.661E-02 -.177E+00
   0.197E+02 -.352E+02 0.461E+02   -.205E+02 0.354E+02 -.450E+02   0.105E+01 -.892E-01 -.189E+01   -.872E-01 0.581E-01 -.778E-01
   0.256E+02 0.315E+02 0.452E+02   -.265E+02 -.327E+02 -.436E+02   0.964E+00 0.106E+01 -.256E+01   0.119E+00 0.817E-01 0.224E-01
   -.104E+02 0.869E+01 -.160E+02   0.110E+02 -.111E+02 0.155E+02   -.722E-01 0.192E+01 0.852E+00   -.243E-01 0.287E-01 0.289E-01
   -.878E+01 -.464E+01 -.184E+02   0.902E+01 0.630E+01 0.182E+02   0.263E+00 -.124E+01 0.528E+00   -.886E-01 -.910E-02 0.821E-01
   0.116E+01 -.222E+01 -.280E+01   0.462E-13 0.711E-13 0.924E-13   -.117E+01 0.227E+01 0.283E+01   0.190E-01 -.341E-01 -.430E-02

 POSITION                                       TOTAL-FORCE (eV/Angst)
      1.41674      1.18921      7.91788         0.156992     -0.009565      0.045912
      1.41674      3.59623      2.48480         0.107911      0.064268     -0.084016
      2.95318      1.17232      4.95416         1.095436     -0.761358     -0.171950
      2.95318      3.61312     10.46394         0.968003      0.623876     -0.687150
      4.32339      1.10675      2.28709         0.239699     -0.151220     -0.032719
      4.32339      3.67869      7.72908         0.130240      0.221577      0.026770
      5.68119      1.15507     10.06346        -0.912881     -1.271318     -0.620565
      5.68119      3.63037      4.63247        -1.060739      1.172874     -0.278636
      4.46583      0.27984      3.92608        -0.469773      0.000893      0.842056
      4.50461      4.50560      9.36272        -0.638035      0.087662      1.072689
      0.07858      0.27543      1.97861         0.363006     -0.364649     -0.185590
      0.07858      4.51001      7.42059         0.334657      0.337653     -0.228047
      1.27480      2.15077      6.11830        -0.011977     -0.184448     -0.054525
      1.30313      2.63467      0.59109        -0.042122      0.288686      0.387771
      1.60166      0.24763      9.81475        -0.165312      0.275581     -0.232007
      1.60166      4.52989      4.37277        -0.184128     -0.254088     -0.293690
      2.76400      2.17034      3.05678        -0.231234      0.004993      0.613850
      2.76400      2.61510      8.49876        -0.195651      0.047673      0.676566
      2.99722      0.17036      6.92466        -0.344245      0.490625      0.013954
      2.99722      4.65395      1.48267        -0.435984     -0.711142     -0.002865
      4.14336      2.09821      0.42061         0.197181      0.179829     -0.811814
      4.14336      2.66540      5.86260         0.178263     -0.036176     -0.892061
      5.55698      2.18458      8.15493         0.510802     -0.461748      0.431088
      5.58353      2.60086      2.70929         0.409892      0.409521      0.464979
    total drift:                                0.008251      0.012854      0.022971

  FREE ENERGIE OF THE ION-ELECTRON SYSTEM (eV)
  free  energy   TOTEN  =      -132.08601961 eV

  energy  without entropy=     -132.20307262  energy(sigma->0) =     -132.12503728

 Quasi-Newton relaxation of ions (Broydens 2nd method)
  g(Force)  = 0.852E+00   g(Stress)= 0.000E+00

 Reset! Starting new Quasi-Newton update for ions