 vasp.5.3.5 31Mar14 (build Aug 29 2014 19:41:47) complex

 executed on             LinuxIFC date 2019.01.22  20:49:36

 INCAR:
 POTCAR:    PAW_PBE Fe 06Sep2000
 POTCAR:    PAW_PBE O 08Apr2002
 POTCAR:    PAW_PBE F 08Apr2002
 POTCAR:    PAW_PBE Fe 06Sep2000
   VRHFIN =Fe:  d7 s1

   TITEL  = PAW_PBE Fe 06Sep2000
   POMASS =   55.847; ZVAL   =    8.000    mass and valenz
   ENMAX  =  267.882; ENMIN  =  200.911 eV

 POTCAR:    PAW_PBE O 08Apr2002
   VRHFIN =O: s2p4

   TITEL  = PAW_PBE O 08Apr2002
   POMASS =   16.000; ZVAL   =    6.000    mass and valenz
   ENMAX  =  400.000; ENMIN  =  300.000 eV

 POTCAR:    PAW_PBE F 08Apr2002
   VRHFIN =F: s2p5

   TITEL  = PAW_PBE F 08Apr2002
   POMASS =   18.998; ZVAL   =    7.000    mass and valenz
   ENMAX  =  400.000; ENMIN  =  300.000 eV

 Optimization of the real space projectors (new method)

 maximal supplied QI-value         = 16.25
 optimisation between [QCUT,QGAM] = [ 10.24, 20.48] = [ 29.35,117.42] Ry
 Optimized for a Real-space Cutoff    1.51 Angstroem

   l    n(q)    QCUT    max X(q) W(low)/X(q) W(high)/X(q)  e(spline)
   2      8    10.239    80.901    0.43E-03    0.67E-03    0.20E-06
   2      8    10.239    75.754    0.44E-03    0.68E-03    0.20E-06
   0      9    10.239    58.752    0.81E-04    0.41E-04    0.71E-07
   0      9    10.239    30.679    0.75E-04    0.39E-04    0.65E-07
   1      9    10.239    17.977    0.50E-04    0.16E-03    0.11E-06
   1      9    10.239    13.559    0.39E-04    0.13E-03    0.98E-07
 Optimization of the real space projectors (new method)

[...]

   l    n(q)    QCUT    max X(q) W(low)/X(q) W(high)/X(q)  e(spline)
   0      8    10.150    20.381    0.22E-03    0.32E-03    0.29E-06
   0      8    10.150    15.268    0.23E-03    0.35E-03    0.30E-06
   1      8    10.150     5.964    0.46E-03    0.53E-03    0.21E-06
   1      8    10.150     5.382    0.38E-03    0.45E-03    0.19E-06
 Optimization of the real space projectors (new method)

 maximal supplied QI-value         = 24.76
 optimisation between [QCUT,QGAM] = [ 10.15, 20.30] = [ 28.85,115.39] Ry
 Optimized for a Real-space Cutoff    1.38 Angstroem

   l    n(q)    QCUT    max X(q) W(low)/X(q) W(high)/X(q)  e(spline)
   0      8    10.150    14.049    0.15E-03    0.22E-03    0.24E-06
   0      8    10.150     8.945    0.21E-03    0.31E-03    0.30E-06
   1      8    10.150     7.086    0.42E-03    0.48E-03    0.23E-06
   1      8    10.150     6.747    0.37E-03    0.43E-03    0.21E-06
  PAW_PBE Fe 06Sep2000                  :
  PAW_PBE O 08Apr2002                   :
  PAW_PBE F 08Apr2002                   :

 POSCAR: Fe16 O4 F32
  positions in direct lattice
 exchange correlation table for  LEXCH =        8
   RHO(1)=    0.500       N(1)  =     2000
   RHO(2)=  100.500       N(2)  =     4000

 ion  position               nearest neighbor table
   1  0.164  0.484  0.180-  21 1.90  34 1.90  45 1.91  29 2.05  26 2.09  42 2.16   5 3.10
   2  0.164  0.516  0.674-  46 1.91  33 1.93  22 1.94  30 1.99  25 2.02  41 2.14   6 3.01
   3  0.671  0.984  0.180-  47 1.86  36 1.90  23 1.95  31 1.99  44 2.12  28 2.12   7 3.10
   4  0.664  0.016  0.680-  24 1.90  35 1.90  48 1.91  27 2.03  32 2.05  43 2.16   8 3.10
   5  0.175  0.473  0.973-  17 1.82  38 1.90  52 1.92  42 2.15  29 2.16  26 2.21  14 3.00   1 3.10

   6  0.175  0.527  0.473-  18 1.82  37 1.90  51 1.97  30 2.16  41 2.18  25 2.24  13 3.00   2 3.01

[...]

  17  0.309  0.267  0.925-   5 1.82  14 1.93   9 2.01
  18  0.309  0.733  0.425-   6 1.82  13 1.91  10 2.01
  19  0.809  0.767  0.925-   7 1.82  16 1.92  11 2.03
  20  0.809  0.233  0.418-   8 1.87  12 1.93  15 2.09
  21  0.004  0.369  0.244-   1 1.90  12 2.07
  22  0.004  0.631  0.744-   2 1.94  11 2.09
  23  0.504  0.869  0.244-   3 1.95  10 2.08
  24  0.504  0.131  0.744-   4 1.90   9 2.08
  25  0.026  0.395  0.579-   2 2.02  15 2.11   6 2.24
  26  0.026  0.595  0.078-   1 2.09  16 2.14   5 2.21
  27  0.526  0.895  0.585-   4 2.03  13 2.22   8 2.30
  28  0.526  0.105  0.079-   3 2.12  14 2.16   7 2.24
  29  0.176  0.214  0.084-   1 2.05   5 2.16  14 2.20
  30  0.176  0.786  0.584-   2 1.99   6 2.16  13 2.21
  31  0.676  0.714  0.089-   3 1.99   7 2.22  16 2.25
  32  0.676  0.286  0.584-   4 2.05  15 2.14   8 2.16
  33  0.181  0.206  0.739-   2 1.93   9 2.10
  34  0.181  0.797  0.239-   1 1.90  10 2.09
  35  0.681  0.703  0.739-   4 1.90  11 2.10
  36  0.689  0.297  0.239-   3 1.90  12 2.05
  37  0.189  0.202  0.424-   6 1.90  13 2.12  10 2.38
  38  0.189  0.798  0.924-   5 1.90  14 2.13   9 2.38
  39  0.689  0.702  0.424-   8 1.90  15 2.21  12 2.39
  40  0.689  0.298  0.918-   7 1.93  16 2.18  11 2.31
  41  0.300  0.347  0.578-   2 2.14  13 2.15   6 2.18
  42  0.293  0.653  0.078-  14 2.15   5 2.15   1 2.16
  43  0.793  0.847  0.578-  15 2.09   8 2.15   4 2.16
  44  0.793  0.153  0.078-   3 2.12   7 2.15  16 2.15
  45  0.303  0.306  0.248-   1 1.91  10 2.13
  46  0.297  0.694  0.748-   2 1.91   9 2.14
  47  0.803  0.806  0.248-   3 1.86  12 2.13
  48  0.803  0.194  0.748-   4 1.91  11 2.10
  49  0.491  0.135  0.423-   8 1.97  13 2.07  10 2.29
  50  0.491  0.865  0.923-   7 1.97  14 2.08   9 2.29
  51  0.991  0.635  0.423-   6 1.97  15 2.17  12 2.28
  52  0.991  0.365  0.933-   5 1.92  16 1.99  11 2.37

IMPORTANT INFORMATION: All symmetrisations will be switched off!
NOSYMM: (Re-)initialisation of all symmetry stuff for point group C_1.

 KPOINTS: Automatic mesh

Automatic generation of k-mesh.
Space group operators:
 irot       det(A)        alpha          n_x          n_y          n_z        tau_x        tau_y        tau_z
    1     1.000000     0.000000     1.000000     0.000000     0.000000     0.000000     0.000000     0.000000

 Subroutine IBZKPT returns following result:

 Found      8 irreducible k-points:

 Following reciprocal coordinates:
            Coordinates               Weight
  0.000000  0.000000  0.000000      1.000000
  0.500000  0.000000  0.000000      1.000000
  0.000000  0.500000  0.000000      1.000000
  0.500000  0.500000  0.000000      1.000000
  0.000000  0.000000  0.500000      1.000000
  0.500000  0.000000  0.500000      1.000000
  0.000000  0.500000  0.500000      1.000000
  0.500000  0.500000  0.500000      1.000000

 Following cartesian coordinates:
            Coordinates               Weight
  0.000000  0.000000  0.000000      1.000000
  0.053185  0.000000  0.000000      1.000000
  0.000000  0.093293  0.000000      1.000000
  0.053185  0.093293  0.000000      1.000000
  0.000299  0.000000  0.033432      1.000000
  0.053484  0.000000  0.033432      1.000000
  0.000299  0.093293  0.033432      1.000000
  0.053484  0.093293  0.033432      1.000000

 I would recommend the setting:
   dimension x,y,z NGX =    46 NGY =   26 NGZ =   73
 SYSTEM =  tssm
 POSCAR =  Fe16 O4 F32

 Startparameter for this run:
   NWRITE =      2    write-flag & timer
   PREC   = normal    normal or accurate (medium, high low for compatibility)
   ISTART =      0    job   : 0-new  1-cont  2-samecut
   ICHARG =      2    charge: 1-file 2-atom 10-const
   ISPIN  =      1    spin polarized calculation?
   LNONCOLLINEAR =      F non collinear calculations
   LSORBIT =      F    spin-orbit coupling
   INIWAV =      1    electr: 0-lowe 1-rand  2-diag
   LASPH  =      F    aspherical Exc in radial PAW
   METAGGA=      F    non-selfconsistent MetaGGA calc.

 Electronic Relaxation 1
   ENCUT  =  400.0 eV  29.40 Ry    5.42 a.u.  15.33  8.74 24.39*2*pi/ulx,y,z
   ENINI  =  400.0     initial cutoff
   ENAUG  =  613.6 eV  augmentation charge cutoff
   NELM   =    300;   NELMIN=  2; NELMDL=-12     # of ELM steps
   EDIFF  = 0.1E-03   stopping-criterion for ELM
   LREAL  =      T    real-space projection
   NLSPLINE    = F    spline interpolate recip. space projectors
   LCOMPAT=      F    compatible to vasp.4.4
   GGA_COMPAT  = T    GGA compatible to vasp.4.4-vasp.4.6
   LMAXPAW     = -100 max onsite density
   LMAXMIX     =    2 max onsite mixed and CHGCAR
   VOSKOWN=      0    Vosko Wilk Nusair interpolation
   ROPT   =   -0.00050  -0.00050  -0.00050
 Ionic relaxation
   EDIFFG = 0.1E-02   stopping-criterion for IOM
   NSW    =      1    number of steps for IOM
   NBLOCK =      1;   KBLOCK =      1    inner block; outer block
   IBRION =      1    ionic relax: 0-MD 1-quasi-New 2-CG
   NFREE  =      0    steps in history (QN), initial steepest desc. (CG)
   ISIF   =      2    stress and relaxation
   IWAVPR =     11    prediction:  0-non 1-charg 2-wave 3-comb
   ISYM   =      0    0-nonsym 1-usesym 2-fastsym
   LCORR  =      T    Harris-Foulkes like correction to forces

   POTIM  = 0.5000    time-step for ionic-motion
   TEIN   =    0.0    initial temperature
   TEBEG  =    0.0;   TEEND  =   0.0 temperature during run
   SMASS  =  -3.00    Nose mass-parameter (am)
   estimated Nose-frequenzy (Omega)   =  0.10E-29 period in steps =****** mass=  -0.202E-26a.u.
   SCALEE = 1.0000    scale energy and forces
   NPACO  =    256;   APACO  = 16.0  distance and # of slots for P.C.
   PSTRESS=    0.0 pullay stress

  Mass of Ions in am
   POMASS =  55.85 16.00 19.00
  Ionic Valenz
   ZVAL   =   8.00  6.00  7.00
  Atomic Wigner-Seitz radii
  virtual crystal weights
   VCA    =   1.00  1.00  1.00
   NELECT =     376.0000    total number of electrons
   NUPDOWN=      -1.0000    fix difference up-down

 DOS related values:
   EMIN   =  10.00;   EMAX   =-10.00  energy-range for DOS
   EFERMI =   0.00
   ISMEAR =     1;   SIGMA  =   0.20  broadening in eV -4-tet -1-fermi 0-gaus

 Electronic relaxation 2 (details)
   IALGO  =     48    algorithm
   LDIAG  =      T    sub-space diagonalisation (order eigenvalues)
   LSUBROT=      F    optimize rotation matrix (better conditioning)
   TURBO    =      0    0=normal 1=particle mesh
   IRESTART =      0    0=no restart 2=restart with 2 vectors
   NREBOOT  =      0    no. of reboots
   NMIN     =      0    reboot dimension
   EREF     =   0.00    reference energy to select bands
   IMIX   =      4    mixing-type and parameters
     AMIX     =   0.40;   BMIX     =  1.00
     AMIX_MAG =   1.60;   BMIX_MAG =  1.00
     AMIN     =   0.01
     WC   =   100.;   INIMIX=   1;  MIXPRE=   1;  MAXMIX= -45

 Intra band minimization:
   WEIMIN = 0.0010     energy-eigenvalue tresh-hold
   EBREAK =  0.11E-06  absolut break condition
   DEPER  =   0.30     relativ break condition

   TIME   =   0.40     timestep for ELM

  volume/ion in A,a.u.               =      14.49        97.79
  Fermi-wavevector in a.u.,A,eV,Ry     =   1.298477  2.453765 22.939992  1.686042
  Thomas-Fermi vector in A             =   2.429803

 Write flags
   LWAVE  =      F    write WAVECAR
   LCHARG =      T    write CHGCAR
   LVTOT  =      F    write LOCPOT, total local potential
   LVHAR  =      F    write LOCPOT, Hartree potential only
   LELF   =      F    write electronic localiz. function (ELF)
   LORBIT =      0    0 simple, 1 ext, 2 COOP (PROOUT)

 Dipole corrections
   LMONO  =      F    monopole corrections only (constant potential shift)
   LDIPOL =      F    correct potential (dipole corrections)
   IDIPOL =      0    1-x, 2-y, 3-z, 4-all directions
   EPSILON=  1.0000000 bulk dielectric constant

 Exchange correlation treatment:
   GGA     =    --    GGA type
[...]
    214       0.7732     -0.00000
    215       0.8318     -0.00000
    216       0.9112     -0.00000
    217       0.9781     -0.00000
    218       0.9956     -0.00000
    219       1.0605     -0.00000
    220       1.1255     -0.00000
    221       1.1792     -0.00000
    222       1.1915     -0.00000
    223       1.2602     -0.00000
    224       1.3034     -0.00000
    225       3.3364     -0.00000

[...]

 k-point     8 :       0.5000    0.5000    0.5000
  band No.  band energies     occupation
      1     -24.2148      2.00000
      2     -24.0206      2.00000
      3     -23.9659      2.00000
      4     -23.9046      2.00000
      5     -23.8306      2.00000
      6     -23.7924      2.00000
      7     -23.7477      2.00000
      8     -23.7023      2.00000
      9     -23.6446      2.00000
     10     -23.5868      2.00000
     11     -23.4813      2.00000
     12     -23.4591      2.00000
     13     -23.3656      2.00000
     14     -23.3380      2.00000
     15     -23.2035      2.00000
     16     -23.1512      2.00000
     17     -23.1449      2.00000
     18     -23.0850      2.00000
     19     -23.0617      2.00000
     20     -23.0468      2.00000
     21     -23.0176      2.00000
     22     -22.9667      2.00000
     23     -22.9643      2.00000
     24     -22.9480      2.00000
     25     -22.8931      2.00000
     26     -22.8803      2.00000
     27     -22.8486      2.00000
     28     -22.8277      2.00000
     29     -22.7901      2.00000
     30     -22.7522      2.00000
     31     -22.7385      2.00000
     32     -22.6229      2.00000
     33     -18.9952      2.00000
     34     -18.9427      2.00000
     35     -18.9346      2.00000
     36     -18.6231      2.00000
     37      -7.1450      2.00000
     38      -7.0400      2.00000
     39      -6.9879      2.00000
     40      -6.8274      2.00000
     41      -6.7914      2.00000
     42      -6.7329      2.00000
     43      -6.7032      2.00000
     44      -6.6579      2.00000
     45      -6.5863      2.00000
     46      -6.5586      2.00000
     47      -6.4804      2.00000
     48      -6.4222      2.00000
     49      -6.3936      2.00000
     50      -6.3865      2.00000
     51      -6.3229      2.00000
     52      -6.3078      2.00000
     53      -6.3012      2.00000
     54      -6.2155      2.00000
     55      -6.1514      2.00000
     56      -6.1223      2.00000
     57      -6.0785      2.00000
     58      -6.0485      2.00000
     59      -6.0121      2.00000
     60      -6.0036      2.00000
[...]
    211       0.6378     -0.00000
    212       0.6696     -0.00000
    213       0.7442     -0.00000
    214       0.7824     -0.00000
    215       0.8525     -0.00000
    216       0.8748     -0.00000
    217       0.9028     -0.00000
    218       0.9274     -0.00000
    219       0.9330     -0.00000
    220       0.9858     -0.00000
    221       1.0157     -0.00000
    222       1.0701     -0.00000
    223       1.1087     -0.00000
    224       1.1326     -0.00000
    225       5.5421      0.00000

 soft charge-density along one line, spin component           1
         0         1         2         3         4         5         6         7         8         9
 total charge-density along one line

------------------------ aborting loop because EDIFF is reached ----------------------------------------

  FORCE on cell =-STRESS in cart. coord.  units (eV):
  Direction    XX          YY          ZZ          XY          YZ          ZX
  Alpha Z  1136.56246  1136.56246  1136.56246
  Ewald   -7541.57308 -7168.54718 -4948.67472    34.42492    17.07871    47.93155
  Hartree  3450.29046  3626.45270  5292.77344    23.02406    13.31527    40.74090
  E(xc)   -2003.03067 -2002.78014 -2001.68703     0.07285    -0.02529    -0.01897
  Local   -1340.75198 -1889.29715 -5757.34337   -57.32912   -31.29078   -86.83135
  n-local -1841.07424 -1834.51647 -1836.82120    -0.01937     0.44925    -1.38783
  augment  1208.33902  1208.40485  1205.69712    -0.01337     0.32745     0.44174
  Kinetic  6835.24777  6821.43934  6801.42224    -0.75794     1.35548     0.33578
  Fock        0.00000     0.00000     0.00000     0.00000     0.00000     0.00000
  Total     -95.99026  -102.28159  -108.07106    -0.59796     1.21009     1.21182
  in kB    -204.09293  -217.46944  -229.77893    -1.27138     2.57288     2.57655

 VOLUME and BASIS-vectors are now :
  energy-cutoff  :      400.00
  volume of cell :      753.55
      direct lattice vectors                 reciprocal lattice vectors
     9.401191000  0.000000000 -0.084129000     0.106369501  0.000000000  0.000000000
     0.000000000  5.359467000  0.000000000     0.000000000  0.186585718  0.000000000
     0.000000000  0.000000000 14.955651000     0.000598353  0.000000000  0.066864358

  length of vectors
     9.401567418  5.359467000 14.955651000     0.106369501  0.186585718  0.066867035

 FORCES acting on ions
    electron-ion (+dipol)            ewald-force                    non-local-force                 convergence-correction
   -.183E+02 -.438E+01 -.821E+02   0.179E+02 0.419E+01 0.840E+02   0.278E+00 0.343E+00 -.283E+01   0.219E+00 0.347E-02 0.459E+00
   -.111E+02 0.895E+01 -.956E+02   0.107E+02 -.873E+01 0.987E+02   0.240E+00 -.454E+00 -.262E+01   0.134E+00 0.186E-02 0.860E-01
   0.808E+01 -.130E+02 -.819E+02   -.844E+01 0.123E+02 0.832E+02   -.147E+00 0.840E+00 -.261E+01   -.191E+00 0.216E-02 0.673E+00
   -.213E+02 -.322E+01 -.832E+02   0.205E+02 0.290E+01 0.857E+02   0.865E+00 0.101E+00 -.271E+01   -.126E+00 -.125E-01 -.194E+00
   -.229E+02 0.560E+01 0.112E+03   0.240E+02 -.613E+01 -.113E+03   -.164E+00 -.133E+00 0.321E+01   0.143E-01 0.859E-02 0.480E+00
   -.198E+01 -.762E+01 0.974E+02   0.251E+01 0.826E+01 -.995E+02   -.435E+00 0.218E-01 0.367E+01   0.585E+00 0.792E-01 -.282E+00
   0.158E+01 0.106E+02 0.898E+02   -.423E+00 -.110E+02 -.918E+02   -.578E+00 -.168E+00 0.319E+01   0.826E-04 -.109E-01 0.824E-01
   -.579E+01 -.166E+02 0.932E+02   0.781E+01 0.171E+02 -.956E+02   -.678E+00 0.271E+00 0.353E+01   -.545E+00 -.372E-01 -.326E+00
   -.811E+00 -.377E+01 0.773E+02   0.470E+00 0.641E+01 -.791E+02   0.308E+00 -.166E+01 0.189E+01   -.274E+00 0.241E-01 -.347E+00
   -.669E+01 0.507E+01 0.783E+02   0.657E+01 -.772E+01 -.805E+02   0.733E-01 0.162E+01 0.199E+01   -.108E+00 0.303E-02 -.141E+00
   -.211E+02 -.784E+01 0.712E+02   0.198E+02 0.104E+02 -.732E+02   0.558E+00 -.155E+01 0.215E+01   0.263E+00 0.134E-01 -.403E+00
   -.600E+01 -.154E+02 0.626E+02   0.518E+01 0.120E+02 -.634E+02   0.390E+00 0.214E+01 0.118E+01   0.112E+00 -.203E-01 -.393E+00
   -.134E+02 -.191E+01 -.116E+03   0.136E+02 0.456E+00 0.115E+03   -.280E+00 0.491E+00 0.109E+01   0.202E+00 -.126E-01 -.453E+00
   -.126E+02 0.658E+01 -.116E+03   0.135E+02 -.477E+01 0.114E+03   -.429E+00 -.814E+00 0.580E+00   -.425E+00 0.202E-01 0.593E+00
   -.454E+01 0.107E+02 -.852E+02   0.488E+01 -.120E+02 0.843E+02   -.239E+00 0.418E+00 -.363E+00   -.159E+00 -.720E-02 -.142E+00
   0.299E+02 -.361E+01 -.114E+03   -.291E+02 0.545E+01 0.112E+03   -.123E+01 -.630E+00 0.103E+01   0.453E+00 0.285E-03 0.253E+00
   -.104E+03 -.107E+03 0.115E+03   0.115E+03 0.114E+03 -.121E+03   -.111E+02 -.905E+01 0.627E+01   -.213E+00 0.214E+00 0.641E-01
   -.106E+03 0.108E+03 0.114E+03   0.116E+03 -.116E+03 -.120E+03   -.111E+02 0.927E+01 0.656E+01   0.631E+00 0.922E+00 -.657E+00
   -.100E+03 -.106E+03 0.115E+03   0.111E+03 0.114E+03 -.121E+03   -.112E+02 -.903E+01 0.704E+01   0.477E+00 -.148E+00 -.534E+00
   -.925E+02 0.103E+03 0.847E+02   0.102E+03 -.109E+03 -.878E+02   -.102E+02 0.835E+01 0.444E+01   -.149E+00 -.244E+00 -.487E+00
   0.490E+02 0.126E+03 -.461E+02   -.559E+02 -.139E+03 0.475E+02   0.562E+01 0.130E+02 -.669E+00   0.993E+00 0.234E+00 -.380E+00
   0.511E+02 -.123E+03 -.528E+02   -.554E+02 0.135E+03 0.544E+02   0.369E+01 -.125E+02 -.123E+01   0.349E+00 -.176E+00 -.174E+00
   0.554E+02 0.121E+03 -.405E+02   -.592E+02 -.133E+03 0.394E+02   0.458E+01 0.121E+02 0.839E+00   -.837E+00 0.856E-01 0.588E+00
   0.636E+02 -.128E+03 -.499E+02   -.695E+02 0.141E+03 0.513E+02   0.574E+01 -.127E+02 -.509E+00   -.106E+00 0.602E-01 -.395E+00
   0.116E+03 0.165E+03 -.677E+02   -.120E+03 -.177E+03 0.680E+02   0.219E+01 0.119E+02 -.146E+01   0.518E+00 -.171E+00 0.709E+00
   0.118E+03 -.162E+03 -.872E+02   -.121E+03 0.171E+03 0.883E+02   0.199E+01 -.917E+01 -.246E+01   0.968E+00 -.119E+00 0.108E+01
   0.131E+03 0.154E+03 -.548E+02   -.136E+03 -.165E+03 0.559E+02   0.442E+01 0.109E+02 -.137E+01   -.499E+00 0.107E+00 -.411E+00
   0.119E+03 -.155E+03 -.780E+02   -.121E+03 0.165E+03 0.806E+02   0.195E+01 -.101E+02 -.406E+01   -.489E+00 0.171E+00 0.823E+00
   0.604E+02 0.189E+03 -.836E+02   -.682E+02 -.201E+03 0.866E+02   0.817E+01 0.111E+02 -.469E+01   -.326E-01 0.499E+00 0.113E+01
   0.683E+02 -.195E+03 -.728E+02   -.761E+02 0.208E+03 0.758E+02   0.743E+01 -.134E+02 -.405E+01   0.422E+00 0.263E+00 0.391E+00
   0.753E+02 0.190E+03 -.582E+02   -.828E+02 -.203E+03 0.598E+02   0.799E+01 0.128E+02 -.324E+01   -.216E+00 -.144E+00 0.838E+00
   0.746E+02 -.176E+03 -.684E+02   -.836E+02 0.187E+03 0.727E+02   0.986E+01 -.101E+02 -.487E+01   -.486E+00 -.234E+00 -.353E-02
   0.917E+02 0.110E+03 -.504E+02   -.101E+03 -.123E+03 0.511E+02   0.103E+02 0.125E+02 0.218E+00   -.100E+00 0.361E+00 -.448E+00
   0.869E+02 -.116E+03 -.443E+02   -.970E+02 0.130E+03 0.440E+02   0.103E+02 -.139E+02 0.102E+01   0.400E+00 -.395E+00 -.550E-01
   0.877E+02 0.117E+03 -.513E+02   -.974E+02 -.130E+03 0.514E+02   0.102E+02 0.138E+02 0.567E+00   0.767E-01 -.896E-01 -.119E+00
   0.104E+03 -.109E+03 -.397E+02   -.114E+03 0.122E+03 0.380E+02   0.107E+02 -.131E+02 0.193E+01   -.119E+00 0.530E-01 0.328E+00
   0.140E+03 0.683E+02 0.140E+03   -.152E+03 -.772E+02 -.150E+03   0.114E+02 0.960E+01 0.109E+02   0.772E+00 -.964E+00 -.699E+00
   0.139E+03 -.692E+02 0.145E+03   -.149E+03 0.794E+02 -.156E+03   0.110E+02 -.981E+01 0.109E+02   -.195E+00 -.122E+00 0.602E-01
   0.134E+03 0.749E+02 0.134E+03   -.143E+03 -.864E+02 -.144E+03   0.932E+01 0.111E+02 0.103E+02   -.530E+00 0.217E+00 -.461E+00
   0.142E+03 -.611E+02 0.128E+03   -.153E+03 0.692E+02 -.137E+03   0.113E+02 -.838E+01 0.101E+02   -.236E-01 0.381E+00 -.546E+00
   -.189E+03 0.128E+02 -.906E+02   0.200E+03 -.116E+02 0.963E+02   -.114E+02 -.756E+00 -.647E+01   0.191E+00 -.350E+00 0.191E+00
   -.193E+03 -.193E+02 -.956E+02   0.203E+03 0.190E+02 0.101E+03   -.941E+01 0.676E+00 -.681E+01   -.552E+00 -.351E+00 0.109E+01
   -.186E+03 0.534E+01 -.861E+02   0.195E+03 -.340E+01 0.921E+02   -.875E+01 -.227E+01 -.659E+01   -.152E+00 0.324E+00 0.941E-01
   -.179E+03 -.184E+02 -.808E+02   0.188E+03 0.185E+02 0.854E+02   -.961E+01 -.101E+00 -.614E+01   0.411E+00 -.157E-02 0.817E+00
   -.149E+03 -.250E+02 -.420E+02   0.164E+03 0.263E+02 0.454E+02   -.147E+02 -.162E+01 -.301E+01   -.571E+00 0.339E-01 -.780E-01
   -.138E+03 0.212E+02 -.514E+02   0.151E+03 -.223E+02 0.566E+02   -.127E+02 0.169E+01 -.449E+01   -.382E+00 -.275E+00 -.522E+00
   -.147E+03 -.179E+02 -.538E+02   0.162E+03 0.182E+02 0.585E+02   -.148E+02 -.524E+00 -.444E+01   0.189E+00 -.639E-01 0.200E+00
   -.151E+03 0.291E+02 -.414E+02   0.165E+03 -.311E+02 0.446E+02   -.142E+02 0.221E+01 -.291E+01   0.169E+00 0.129E+00 -.799E-01
   -.273E+02 -.160E+03 0.134E+03   0.277E+02 0.175E+03 -.144E+03   -.497E-01 -.146E+02 0.976E+01   -.688E+00 -.329E+00 -.276E+00
   -.234E+02 0.165E+03 0.132E+03   0.230E+02 -.178E+03 -.141E+03   0.377E+00 0.141E+02 0.925E+01   -.486E+00 -.246E+00 -.202E+00
   -.109E+02 -.158E+03 0.128E+03   0.831E+01 0.171E+03 -.135E+03   0.222E+01 -.132E+02 0.836E+01   -.597E-01 0.324E+00 -.867E+00
   -.155E+02 0.171E+03 0.160E+03   0.136E+02 -.185E+03 -.170E+03   0.917E+00 0.149E+02 0.909E+01   0.451E+00 -.571E-01 -.225E+00
   -.115E+02 -.625E+01 -.512E+02   -.252E-12 0.000E+00 0.398E-12   0.112E+02 0.627E+01 0.504E+02   0.288E+00 -.432E-01 0.731E+00

 POSITION                                       TOTAL-FORCE (eV/Angst)
      1.54285      2.59385      2.67760         0.087617      0.162344     -0.499961
      1.54285      2.76561     10.07013        -0.028874     -0.230336      0.515898
      6.30677      5.27359      2.63497        -0.700525      0.189337     -0.551676
      6.24344      0.08588     10.11336        -0.103362     -0.229993     -0.391214
      1.64833      2.53423     14.53758         0.951412     -0.649417      1.872556
      1.64833      2.82523      7.05975         0.685211      0.742853      1.282843
      6.34893      5.21397     14.49551         0.579356     -0.579331      1.345934
      6.34893      0.14550      7.01769         0.804474      0.740196      0.801370
      3.11771      0.15764     12.27164        -0.307118      1.012319     -0.273838
      3.11771      5.20182      4.79382        -0.153179     -1.023965     -0.331152
      7.81830      2.80594     12.22958        -0.444425      1.027343     -0.265048
      7.82984      2.52209      4.75165        -0.315596     -1.294448      0.021191
      3.13642      0.02315      7.55748         0.062972     -0.973942     -0.495513
      3.13642      5.33631      0.10166         0.048619      1.010881     -0.569976
      7.83701      2.70289      7.66366        -0.052065     -0.931971     -1.396799
      7.83701      2.65658      0.05188        -0.001174      1.214156     -0.380367
      2.90745      1.43316     13.81466        -0.395845     -1.767276     -0.051636
      2.90745      3.92630      6.33683        -0.370333      1.748481     -0.037402
      7.60805      4.11290     13.77259        -0.414590     -1.779534      0.105844
      7.60805      1.24657      6.18461        -0.566493      1.731397      0.909571
      0.03630      1.97680      3.64809        -0.253216      0.250642      0.348861
      0.03630      3.38267     11.12592        -0.199019     -0.356730      0.213740
      4.73689      4.65653      3.60603        -0.087145      0.389110      0.317599
      4.73689      0.70294     11.08385        -0.315099     -0.199252      0.455559
      0.24362      2.11901      8.65952        -0.415719      0.108634     -0.406692
      0.24362      3.19023      1.15956        -0.494730      0.043209     -0.239693
      4.94422      4.79874      8.69991        -0.308741      0.210139     -0.659626
      4.94422      0.56072      1.13963        -0.413311     -0.215260     -0.566919
      1.65572      1.14784      1.23406         0.334807     -0.197334     -0.573456
      1.65572      4.21163      8.71188         0.131414      0.150237     -0.665250
      6.35631      3.82757      1.26747         0.250486     -0.093249     -0.733521
      6.35631      1.53190      8.66982         0.408361      0.260507     -0.567070
      1.70607      1.10622     11.04375         0.579429      0.165630      0.434281
      1.70607      4.26911      3.56592         0.616726     -0.118731      0.608666
      6.40667      3.77009     11.00168         0.624425      0.090891      0.575942
      6.48025      1.58938      3.52320         0.497009     -0.036545      0.564681
      1.77685      1.08186      6.32026         0.469846     -0.259767      0.035823
      1.77685      4.27760     13.79808         0.458338      0.299880      0.040022
      6.47745      3.76160      6.27819         0.441972     -0.171652      0.174106
      6.47745      1.59787     13.67349         0.565345      0.123813      0.348563
      2.82475      1.85903      8.62320        -0.256724      0.151519     -0.610263
      2.75903      3.50044      1.14596         0.056958     -0.028912     -0.568115
      7.45963      4.53876      8.58172         0.111300      0.001682     -0.482286
      7.45963      0.82071      1.10390         0.046067     -0.084839     -0.653270
      2.84956      1.63791      3.68379        -0.281895     -0.277027      0.299634
      2.78965      3.72155     11.16215        -0.074667      0.255052      0.176384
      7.55015      4.31765      3.64172         0.089348     -0.373561      0.474447
      7.55015      1.04182     11.11955        -0.169797      0.282305      0.256807
      4.61330      0.72164      6.28428        -0.403190     -0.435409      0.160978
      4.61330      4.63783     13.76211        -0.438838      0.365394      0.079852
      9.31389      3.40138      6.24222        -0.413517     -0.436515      0.213042
      9.31389      1.95809     13.86568        -0.522306      0.017047     -0.663451
    total drift:                                0.002428     -0.025047     -0.016660

  FREE ENERGIE OF THE ION-ELECTRON SYSTEM (eV)
  free  energy   TOTEN  =      -277.67179863 eV

  energy  without entropy=     -277.67402091  energy(sigma->0) =     -277.67253939

 Quasi-Newton relaxation of ions (Broydens 2nd method)
  g(Force)  = 0.256E+01   g(Stress)= 0.000E+00

 Reset! Starting new Quasi-Newton update for ions