User:   murakami@tssm1.eng.shizuoka.ac.jp
Date:   Mon Jan 28 08:59:18 2019
Arch:   x86_64
Pid:    19793
Python: 3.6.5
gpaw:   /home/murakami/.local/lib/python3.6/site-packages/gpaw
_gpaw:  /home/murakami/.local/lib/python3.6/site-packages/
        _gpaw.cpython-36m-x86_64-linux-gnu.so
ase:    /home/murakami/.local/lib/python3.6/site-packages/ase (version 3.16.2)
numpy:  /home/murakami/.local/lib/python3.6/site-packages/numpy (version 1.15.2)
scipy:  /home/murakami/.local/lib/python3.6/site-packages/scipy (version 1.1.0)
units:  Angstrom and eV
cores:  1

Input parameters:
  kpts: {size: (1, 1, 1)}
  maxiter: 300
  xc: PBE

System changes: positions, numbers, cell, pbc, initial_charges, initial_magmoms

Initialize ...

Fe-setup:
  name: Iron
  id: 37abbd8d6c3c35915a9b583b742da910
  Z: 26
  valence: 8
  core: 18
  charge: 0.0
  file: /home/murakami/Public/gpaw-setups-0.9.20000/Fe.PBE.gz
  cutoffs: 1.06(comp), 2.06(filt), 2.67(core), lmax=2
  valence states:
                energy  radius
    4s(2.00)    -5.291   1.164
    4p(0.00)    -1.326   1.058
    3d(6.00)    -7.505   1.058
    *s          21.920   1.164
    *p          25.885   1.058
    *d          19.706   1.058

  Using partial waves for Fe as LCAO basis

O-setup:
  name: Oxygen
  id: 32ecd46bf208036f09c70b0ec9a88b78
  Z: 8
  valence: 6
  core: 2
  charge: 0.0
  file: /home/murakami/Public/gpaw-setups-0.9.20000/O.PBE.gz
  cutoffs: 0.67(comp), 1.17(filt), 0.83(core), lmax=2
  valence states:
                energy  radius
    2s(2.00)   -23.961   0.688
    2p(4.00)    -9.029   0.598
    *s           3.251   0.688
    *p          18.182   0.598
    *d           0.000   0.619

[...]

F-setup:
  name: Fluorine
  id: 9cd46ba2a61e170ad72278be75b55cc0
  Z: 9
  valence: 7
  core: 2
  charge: 0.0
  file: /home/murakami/Public/gpaw-setups-0.9.20000/F.PBE.gz
  cutoffs: 0.64(comp), 1.14(filt), 0.74(core), lmax=2
  valence states:
                energy  radius
    2s(2.00)   -29.898   0.635
    2p(5.00)   -11.110   0.635
    *s          -2.687   0.635
    *p          16.102   0.635
    *d           0.000   0.635

  Using partial waves for F as LCAO basis

Reference energy: -479224.937077

Spin-paired calculation

Occupation numbers:
  Fermi-Dirac: width=0.1000 eV

Convergence criteria:
  Maximum total energy change: 0.0005 eV / electron
  Maximum integral of absolute density change: 0.0001 electrons
  Maximum integral of absolute eigenstate change: 4e-08 eV^2
  Maximum number of iterations: 300

Symmetries present (total): 1

  ( 1  0  0)
  ( 0  1  0)
  ( 0  0  1)

1 k-point (Gamma)
1 k-point in the irreducible part of the Brillouin zone
       k-points in crystal coordinates                weights
   0:     0.00000000    0.00000000    0.00000000          1/1

Eigensolver
   Davidson(niter=1, smin=None, normalize=True)

Densities:
  Coarse grid: 16*104*32 grid
  Fine grid: 32*208*64 grid
  Total Charge: 0.000000

Density mixing:
  Method: separate
  Backend: pulay
  Linear mixing parameter: 0.05
  Mixing with 5 old densities
  Damping of long wave oscillations: 50

Hamiltonian:
  XC and Coulomb potentials evaluated on a 32*208*64 grid
  Using the PBE Exchange-Correlation functional
  Interpolation: tri-quintic (5. degree polynomial)
  Poisson solver: Jacobi solver with 5 multi-grid levels
    Coarsest grid: 2 x 13 x 4 points
    Stencil: 8*3+1=25 point O(h^6) finite-difference Laplacian
    Max iterations: 1000
    Tolerance: 2.000000e-10

Total number of cores used: 1

Number of atoms: 36
Number of atomic orbitals: 204
Number of bands in calculation: 204
Bands to converge: occupied states only
Number of valence electrons: 262

... initialized

Initializing position-dependent things.

Density initialized from atomic densities
Creating initial wave functions:
  204 bands from LCAO basis set

                       F

[...]

                      F
               F Fee
             O       F
                  FFe
                  F
           F FeF      Fe
            F    F  F
         F     Fe
             FF    F
         FeF
       F    F   F
           Fe
         F Fe  F
       O     Fe

       Fe

Positions:
   0 Fe    -0.012692    3.425973    3.405553    ( 0.0000,  0.0000,  0.0000)
   1 Fe    -0.012692   17.123411    3.405553    ( 0.0000,  0.0000,  0.0000)
   2 Fe    -0.000035   13.700665    0.009448    ( 0.0000,  0.0000,  0.0000)
   3 Fe    -0.000278    6.848719    0.074558    ( 0.0000,  0.0000,  0.0000)
   4 Fe     1.626314    3.411629    0.000027    ( 0.0000,  0.0000,  0.0000)
   5 Fe     1.626314   17.137755    0.000027    ( 0.0000,  0.0000,  0.0000)
   6 Fe     1.613657   13.686321    3.396133    ( 0.0000,  0.0000,  0.0000)
   7 Fe     1.613657    6.746404    3.396133    ( 0.0000,  0.0000,  0.0000)
   8 Fe    -0.000308    0.000000    0.082607    ( 0.0000,  0.0000,  0.0000)
   9 Fe    -0.012965   10.274692    3.478712    ( 0.0000,  0.0000,  0.0000)
  10 Fe     1.614356    0.000000    3.208640    ( 0.0000,  0.0000,  0.0000)
  11 Fe     1.601699   10.274692    6.604746    ( 0.0000,  0.0000,  0.0000)
  12 O     -0.007780    0.000000    2.087539    ( 0.0000,  0.0000,  0.0000)
  13 O     -0.020615   10.274692    5.531319    ( 0.0000,  0.0000,  0.0000)
  14 F     -0.005146    3.455769    1.380850    ( 0.0000,  0.0000,  0.0000)
  15 F     -0.005146   17.093615    1.380850    ( 0.0000,  0.0000,  0.0000)
  16 F     -0.017803   13.730461    4.776955    ( 0.0000,  0.0000,  0.0000)
  17 F     -0.017803    6.818923    4.776955    ( 0.0000,  0.0000,  0.0000)
  18 F     -0.020235    3.460146    5.429327    ( 0.0000,  0.0000,  0.0000)
  19 F     -0.020235   17.089238    5.429327    ( 0.0000,  0.0000,  0.0000)
  20 F     -0.007578   13.734838    2.033221    ( 0.0000,  0.0000,  0.0000)
  21 F     -0.007578    6.814546    2.033221    ( 0.0000,  0.0000,  0.0000)
  22 F      1.601093    1.405002    6.767331    ( 0.0000,  0.0000,  0.0000)
  23 F      1.601093   19.144382    6.767331    ( 0.0000,  0.0000,  0.0000)
  24 F      1.613750   11.679694    3.371226    ( 0.0000,  0.0000,  0.0000)
  25 F      1.645655    8.869690    3.371226    ( 0.0000,  0.0000,  0.0000)
  26 F      1.613513    2.017621    3.434678    ( 0.0000,  0.0000,  0.0000)
  27 F      1.613513   18.531763    3.434678    ( 0.0000,  0.0000,  0.0000)
  28 F      1.626170   12.292313    0.038573    ( 0.0000,  0.0000,  0.0000)
  29 F      1.626253    8.240488    0.016356    ( 0.0000,  0.0000,  0.0000)
  30 F      1.644883    4.809789    3.406464    ( 0.0000,  0.0000,  0.0000)
  31 F      1.613618   15.739595    3.406464    ( 0.0000,  0.0000,  0.0000)
  32 F      1.626275   15.084481    0.010358    ( 0.0000,  0.0000,  0.0000)
  33 F      1.656616    5.464903    0.010358    ( 0.0000,  0.0000,  0.0000)
  34 F     -0.017587    0.000000    4.718827    ( 0.0000,  0.0000,  0.0000)
  35 F     -0.004930   10.274692    1.322722    ( 0.0000,  0.0000,  0.0000)

Unit cell:
           periodic     x           y           z      points  spacing
  1. axis:    yes    3.252628    0.000000    0.000000    16     0.2033
  2. axis:    yes    0.000000   20.549384    0.000000   104     0.1976
  3. axis:    yes   -0.025314    0.000000    6.792211    32     0.2123

  Lengths:   3.252628  20.549384   6.792258
  Angles:   90.000000  90.213536  90.000000

Effective grid spacing dv^(1/3) = 0.2043

                     log10-error:    total        iterations:
           time      wfs    density  energy       fermi  poisson
iter:   1  08:59:41  +1.74   +inf  -213.573747    3      19
iter:   2  08:59:49  +0.20   +inf  -214.473149    3
iter:   3  08:59:58  -0.38   +inf  -214.732759    2
iter:   4  09:00:08  -0.64  -1.12  -212.382020    3      9
iter:   5  09:00:19  -0.22  -1.16  -228.626134    36     11
iter:   6  09:00:30  -0.27  -1.15  -256.148760    3      15
iter:   7  09:00:41  -0.30  -1.17  -218.795946    4      15
iter:   8  09:00:52  -0.65  -1.26  -214.001655    3      13
iter:   9  09:01:03  -0.63  -1.27  -233.175523    34     14
iter:  10  09:01:13  -0.70  -1.15  -215.776069    3      14
iter:  11  09:01:24  -0.97  -1.31  -208.097597    3      13
iter:  12  09:01:35  -1.53  -1.42  -206.671571    3      10
iter:  13  09:01:46  -1.86  -1.47  -207.003208    3      9
iter:  14  09:01:56  -1.71  -1.46  -210.453051    3      12
iter:  15  09:02:07  -1.47  -1.36  -212.022085    3      13
iter:  16  09:02:18  -1.48  -1.32  -207.536594    3      12
iter:  17  09:02:29  -1.58  -1.47  -206.640721    2      9
iter:  18  09:02:39  -1.79  -1.51  -207.304754    3      7
iter:  19  09:02:50  -1.69  -1.49  -206.412529    3      8
iter:  20  09:03:00  -2.33  -1.53  -207.052229    3      9
iter:  21  09:03:11  -1.75  -1.52  -212.812199    3      13
iter:  22  09:03:22  -1.46  -1.33  -209.643559    3      13
iter:  23  09:03:33  -1.62  -1.45  -210.409758    3      13
iter:  24  09:03:44  -1.60  -1.42  -206.644317    2      12
iter:  25  09:03:54  -1.90  -1.61  -206.859164    2      10
iter:  26  09:04:05  -2.09  -1.60  -206.200489    3      9
iter:  27  09:04:16  -2.14  -1.63  -209.945332    3      12
iter:  28  09:04:27  -1.75  -1.45  -208.256805    3      13
iter:  29  09:04:37  -1.75  -1.53  -211.724872    3      13
iter:  30  09:04:48  -1.70  -1.40  -206.373926    2      12
iter:  31  09:04:59  -1.97  -1.66  -206.642903    3      8
iter:  32  09:05:09  -1.82  -1.68  -206.564891    3      8
iter:  33  09:05:20  -2.26  -1.67  -207.915783    4      10
iter:  34  09:05:31  -1.93  -1.60  -210.015483    3      12
iter:  35  09:05:42  -1.45  -1.51  -225.941398    4      14
iter:  36  09:05:53  -1.23  -1.28  -207.246357    4      14
iter:  37  09:06:03  -1.74  -1.67  -206.660956    3      10
iter:  38  09:06:14  -2.14  -1.75  -207.378898    3      10
iter:  39  09:06:25  -2.29  -1.68  -206.755889    2      8
iter:  40  09:06:35  -1.71  -1.75  -218.786766    3      13
iter:  41  09:06:46  -1.42  -1.35  -211.492942    3      13
iter:  42  09:06:57  -1.59  -1.48  -206.901623    3      12
iter:  43  09:07:08  -2.25  -1.75  -206.571337    2      8
iter:  44  09:07:18  -2.33  -1.80  -207.468752    3      9
iter:  45  09:07:29  -2.09  -1.72  -206.630423    3      10
iter:  46  09:07:40  -1.87  -1.81  -211.520222    3      12
iter:  47  09:07:50  -1.55  -1.51  -208.496190    3      13
iter:  48  09:08:01  -1.75  -1.66  -206.763425    3      11
iter:  49  09:08:12  -2.14  -1.84  -206.640726    2      9
iter:  50  09:08:23  -1.76  -1.85  -214.587256    3      12
iter:  51  09:08:33  -1.65  -1.41  -206.534386    3      13
iter:  52  09:08:44  -1.96  -1.89  -209.072432    3      11
iter:  53  09:08:55  -1.83  -1.66  -207.385168    3      11
iter:  54  09:09:06  -2.30  -1.78  -206.558309    2      10
iter:  55  09:09:16  -2.79  -1.92  -206.607323    2      8
iter:  56  09:09:27  -1.53  -1.91  -222.653313    4      13
iter:  57  09:09:38  -1.36  -1.34  -206.500015    3      13
iter:  58  09:09:49  -2.04  -1.97  -207.822282    3      10
iter:  59  09:09:59  -2.10  -1.78  -206.862072    3      10
iter:  60  09:10:10  -2.55  -1.90  -206.628125    2      8
iter:  61  09:10:20  -2.76  -1.95  -206.516001    3      9
iter:  62  09:10:31  -1.77  -2.00  -213.897307    3      12
iter:  63  09:10:42  -1.54  -1.47  -206.459194    3      12
[...]
iter: 148  09:25:29  -6.27  -3.80  -206.251604    1      2
iter: 149  09:25:39  -6.49  -3.91  -206.252058    2      3
iter: 150  09:25:49  -5.48  -3.91  -206.253611    2      5
iter: 151  09:26:00  -5.25  -3.26  -206.251734    2      4
iter: 152  09:26:10  -6.12  -4.04  -206.251746    1      2
iter: 153  09:26:20  -6.08  -4.04  -206.251339    2      3
iter: 154  09:26:31  -5.99  -3.87  -206.252229    2      3
iter: 155  09:26:41  -6.30  -3.99  -206.251298    2      3
iter: 156  09:26:51  -5.73  -4.00  -206.252386    1      4
iter: 157  09:27:02  -5.77  -3.60  -206.251722    2      4
iter: 158  09:27:12  -6.05  -4.34  -206.251722    2      3
iter: 159  09:27:22  -6.06  -4.06  -206.251249    2      3
iter: 160  09:27:33  -6.52  -4.05  -206.251523    2      3
iter: 161  09:27:43  -6.94  -4.40  -206.251834    1      2
iter: 162  09:27:53  -7.43  -4.46  -206.251656    1      1

Converged after 162 iterations.

Dipole moment: (-24.920223, -31.032524, -34.900908) |e|*Ang

Energy contributions relative to reference atoms: (reference = -479224.937077)

Kinetic:       +175.306200
Potential:     -179.608033
External:        +0.000000
XC:            -212.554357
Entropy (-ST):   -1.401308
Local:          +11.305188
Free energy:   -206.952310
Extrapolated:  -206.251656

Fermi level: 3.83772

 Band  Eigenvalues  Occupancy
    0    -20.94755    2.00000
    1    -20.77738    2.00000
    2    -20.73309    2.00000
    3    -20.63103    2.00000
    4    -20.62101    2.00000
    5    -20.40632    2.00000
    6    -20.39150    2.00000
    7    -20.36239    2.00000
    8    -20.34790    2.00000
    9    -20.34229    2.00000
   10    -20.32574    2.00000
   11    -20.29791    2.00000
   12    -20.24246    2.00000
   13    -20.21906    2.00000
   14    -20.19573    2.00000
   15    -20.17895    2.00000
   16    -20.17605    2.00000
   17    -20.15862    2.00000
   18    -20.13345    2.00000
   19    -19.88972    2.00000
   20    -19.04934    2.00000
   21    -19.00612    2.00000
   22    -14.48586    2.00000
   23    -14.44324    2.00000
   24     -4.33037    2.00000
   25     -4.21773    2.00000
   26     -4.03582    2.00000
   27     -3.96445    2.00000
   28     -3.78423    2.00000
   29     -3.57121    2.00000
   30     -3.48817    2.00000
   31     -3.36669    2.00000
   32     -3.36075    2.00000
   33     -3.19957    2.00000
   34     -2.83726    2.00000
   35     -2.71627    2.00000
   36     -2.68129    2.00000
   37     -2.58691    2.00000
   38     -2.57255    2.00000
   39     -2.48642    2.00000
   40     -2.46543    2.00000
   41     -2.43015    2.00000
   42     -2.42091    2.00000
   43     -2.41179    2.00000
   44     -2.40527    2.00000
   45     -2.39333    2.00000
   46     -2.32768    2.00000
   47     -2.32566    2.00000
   48     -2.30706    2.00000
   49     -2.27973    2.00000
   50     -2.26777    2.00000
   51     -2.23922    2.00000
   52     -2.20973    2.00000
   53     -2.19892    2.00000
   54     -2.19172    2.00000
   55     -2.18871    2.00000
   56     -2.18511    2.00000
   57     -2.14400    2.00000
   58     -2.11529    2.00000
   59     -2.07422    2.00000
[...]
  189     16.23411    0.00000
  190     16.42112    0.00000
  191     16.44232    0.00000
  192     16.48033    0.00000
  193     16.85269    0.00000
  194     16.89665    0.00000
  195     16.95305    0.00000
  196     16.97699    0.00000
  197     16.99185    0.00000
  198     17.11705    0.00000
  199     17.14258    0.00000
  200     17.33502    0.00000
  201     17.36731    0.00000
  202     17.42545    0.00000
  203     17.60989    0.00000