User:   murakami@tssm1.eng.shizuoka.ac.jp
Date:   Fri Mar 29 07:09:52 2019
Arch:   x86_64
Pid:    31289
Python: 3.6.5
gpaw:   /home/murakami/.local/lib/python3.6/site-packages/gpaw
_gpaw:  /home/murakami/.local/lib/python3.6/site-packages/
        _gpaw.cpython-36m-x86_64-linux-gnu.so
ase:    /home/murakami/.local/lib/python3.6/site-packages/ase (version 3.16.2)
numpy:  /home/murakami/.local/lib/python3.6/site-packages/numpy (version 1.15.2)
scipy:  /home/murakami/.local/lib/python3.6/site-packages/scipy (version 1.1.0)
units:  Angstrom and eV
cores:  1

Input parameters:
  kpts: {size: (1, 1, 1)}
  maxiter: 300
  xc: PBE

System changes: positions, numbers, cell, pbc, initial_charges, initial_magmoms

Initialize ...

Fe-setup:
  name: Iron
  id: 37abbd8d6c3c35915a9b583b742da910
  Z: 26
  valence: 8
  core: 18
  charge: 0.0
  file: /home/murakami/Public/gpaw-setups-0.9.20000/Fe.PBE.gz
  cutoffs: 1.06(comp), 2.06(filt), 2.67(core), lmax=2
  valence states:
                energy  radius
    4s(2.00)    -5.291   1.164
    4p(0.00)    -1.326   1.058
    3d(6.00)    -7.505   1.058
    *s          21.920   1.164
    *p          25.885   1.058
    *d          19.706   1.058

  Using partial waves for Fe as LCAO basis

O-setup:
  name: Oxygen
  id: 32ecd46bf208036f09c70b0ec9a88b78
  Z: 8
  valence: 6
  core: 2
  charge: 0.0
  file: /home/murakami/Public/gpaw-setups-0.9.20000/O.PBE.gz
  cutoffs: 0.67(comp), 1.17(filt), 0.83(core), lmax=2
  valence states:
                energy  radius
    2s(2.00)   -23.961   0.688
    2p(4.00)    -9.029   0.598
    *s           3.251   0.688
    *p          18.182   0.598
    *d           0.000   0.619

[...]

F-setup:
  name: Fluorine
  id: 9cd46ba2a61e170ad72278be75b55cc0
  Z: 9
  valence: 7
  core: 2
  charge: 0.0
  file: /home/murakami/Public/gpaw-setups-0.9.20000/F.PBE.gz
  cutoffs: 0.64(comp), 1.14(filt), 0.74(core), lmax=2
  valence states:
                energy  radius
    2s(2.00)   -29.898   0.635
    2p(5.00)   -11.110   0.635
    *s          -2.687   0.635
    *p          16.102   0.635
    *d           0.000   0.635

  Using partial waves for F as LCAO basis

Reference energy: -648925.267931

Spin-paired calculation

Occupation numbers:
  Fermi-Dirac: width=0.1000 eV

Convergence criteria:
  Maximum total energy change: 0.0005 eV / electron
  Maximum integral of absolute density change: 0.0001 electrons
  Maximum integral of absolute eigenstate change: 4e-08 eV^2
  Maximum number of iterations: 300

Symmetries present (total): 1

  ( 1  0  0)
  ( 0  1  0)
  ( 0  0  1)

1 k-point (Gamma)
1 k-point in the irreducible part of the Brillouin zone
       k-points in crystal coordinates                weights
   0:     0.00000000    0.00000000    0.00000000          1/1

Eigensolver
   Davidson(niter=1, smin=None, normalize=True)

Densities:
  Coarse grid: 48*28*76 grid
  Fine grid: 96*56*152 grid
  Total Charge: 0.000000

Density mixing:
  Method: separate
  Backend: pulay
  Linear mixing parameter: 0.05
  Mixing with 5 old densities
  Damping of long wave oscillations: 50

Hamiltonian:
  XC and Coulomb potentials evaluated on a 96*56*152 grid
  Using the PBE Exchange-Correlation functional
  Interpolation: tri-quintic (5. degree polynomial)
  Poisson solver: Jacobi solver with 4 multi-grid levels
    Coarsest grid: 12 x 7 x 19 points
    Stencil: 8*3+1=25 point O(h^6) finite-difference Laplacian
    Max iterations: 1000
    Tolerance: 2.000000e-10

Total number of cores used: 1

Number of atoms: 52
Number of atomic orbitals: 288
Number of bands in calculation: 288
Bands to converge: occupied states only
Number of valence electrons: 376

... initialized

Initializing position-dependent things.

Density initialized from atomic densities
Creating initial wave functions:
  288 bands from LCAO basis set

                          Fe
              F       F
             Fe              O
               O        F       F
                            Fe
         F       F        F
               Fe
            FFe    F       F
              F        F     F
         F     F       Fe
                            Fe
             Fe  O        F     F
               Fe Fe
            F      F   Fe  O
              F       F     Fe
                          Fe
         F   FeF        F
                         F
          F     F Fe
            F
                    F     F Fe

Positions:
   0 Fe     1.542848    2.593853    2.657826    ( 0.0000,  0.0000,  0.0000)
   1 Fe     1.607716    2.765614   10.154842    ( 0.0000,  0.0000,  0.0000)
   2 Fe     6.243444    5.273587    2.635533    ( 0.0000,  0.0000,  0.0000)
   3 Fe     6.243444    0.085880   10.113358    ( 0.0000,  0.0000,  0.0000)
   4 Fe     1.648330    2.534235   14.537576    ( 0.0000,  0.0000,  0.0000)
   5 Fe     1.648330    2.805456    7.059751    ( 0.0000,  0.0000,  0.0000)
   6 Fe     6.348925    5.213968   14.495512    ( 0.0000,  0.0000,  0.0000)
   7 Fe     6.348925    0.145499    7.017686    ( 0.0000,  0.0000,  0.0000)
   8 Fe     3.117708    0.157643   12.271643    ( 0.0000,  0.0000,  0.0000)
   9 Fe     3.117708    5.201824    4.793817    ( 0.0000,  0.0000,  0.0000)
  10 Fe     7.818303    2.837377   12.229578    ( 0.0000,  0.0000,  0.0000)
  11 Fe     7.818303    2.522090    4.751753    ( 0.0000,  0.0000,  0.0000)
  12 Fe     3.136416    0.018410    7.705724    ( 0.0000,  0.0000,  0.0000)
  13 Fe     3.136416    5.336314    0.227899    ( 0.0000,  0.0000,  0.0000)
  14 Fe     7.832706    2.702886    7.663698    ( 0.0000,  0.0000,  0.0000)
  15 Fe     7.837011    2.656581    0.185834    ( 0.0000,  0.0000,  0.0000)
  16 O      2.907450    1.433164   13.814659    ( 0.0000,  0.0000,  0.0000)
  17 O      2.907450    3.926303    6.336834    ( 0.0000,  0.0000,  0.0000)
  18 O      7.608045    4.112898   13.772595    ( 0.0000,  0.0000,  0.0000)
  19 O      7.608045    1.246569    6.294769    ( 0.0000,  0.0000,  0.0000)
  20 F      0.036298    1.976797    3.648091    ( 0.0000,  0.0000,  0.0000)
  21 F      0.036298    3.382670   11.125917    ( 0.0000,  0.0000,  0.0000)
  22 F      4.692793    4.656530    3.672436    ( 0.0000,  0.0000,  0.0000)
  23 F      4.736893    0.702937   11.083852    ( 0.0000,  0.0000,  0.0000)
  24 F      0.304288    2.119010    8.658977    ( 0.0000,  0.0000,  0.0000)
  25 F      0.243622    3.240457    1.181694    ( 0.0000,  0.0000,  0.0000)
  26 F      4.944218    4.798743    8.617455    ( 0.0000,  0.0000,  0.0000)
  27 F      4.944218    0.560724    1.140572    ( 0.0000,  0.0000,  0.0000)
  28 F      1.655719    1.147837    1.234055    ( 0.0000,  0.0000,  0.0000)
  29 F      1.655719    4.211630    8.711881    ( 0.0000,  0.0000,  0.0000)
  30 F      6.356314    3.827571    1.191991    ( 0.0000,  0.0000,  0.0000)
  31 F      6.356314    1.531896    8.779590    ( 0.0000,  0.0000,  0.0000)
  32 F      1.706072    1.090357   11.043749    ( 0.0000,  0.0000,  0.0000)
  33 F      1.706072    4.269110    3.565923    ( 0.0000,  0.0000,  0.0000)
  34 F      6.406667    3.770090   11.001684    ( 0.0000,  0.0000,  0.0000)
  35 F      6.406667    1.589377    3.523859    ( 0.0000,  0.0000,  0.0000)
  36 F      1.776853    1.081862    6.320255    ( 0.0000,  0.0000,  0.0000)
  37 F      1.776853    4.277605   13.798081    ( 0.0000,  0.0000,  0.0000)
  38 F      6.477449    3.761596    6.278191    ( 0.0000,  0.0000,  0.0000)
  39 F      6.477449    1.597871   13.756016    ( 0.0000,  0.0000,  0.0000)
  40 F      2.759033    1.859028    8.623789    ( 0.0000,  0.0000,  0.0000)
  41 F      2.759033    3.500439    1.145964    ( 0.0000,  0.0000,  0.0000)
  42 F      7.459629    4.538761    8.581725    ( 0.0000,  0.0000,  0.0000)
  43 F      7.474107    0.820706    1.103770    ( 0.0000,  0.0000,  0.0000)
  44 F      2.849557    1.637912    3.774477    ( 0.0000,  0.0000,  0.0000)
  45 F      2.849557    3.721555   11.161611    ( 0.0000,  0.0000,  0.0000)
  46 F      7.550153    4.317646    3.641721    ( 0.0000,  0.0000,  0.0000)
  47 F      7.550153    1.041821   11.119547    ( 0.0000,  0.0000,  0.0000)
  48 F      4.613296    0.721642    6.284284    ( 0.0000,  0.0000,  0.0000)
  49 F      4.613296    4.637825   13.762110    ( 0.0000,  0.0000,  0.0000)
  50 F      9.313892    3.390297    6.242220    ( 0.0000,  0.0000,  0.0000)
  51 F      9.313892    1.958092   13.621353    ( 0.0000,  0.0000,  0.0000)

Unit cell:
           periodic     x           y           z      points  spacing
  1. axis:    yes    9.401191    0.000000   -0.084129    48     0.1959
  2. axis:    yes    0.000000    5.359467    0.000000    28     0.1914
  3. axis:    yes    0.000000    0.000000   14.955651    76     0.1968

  Lengths:   9.401567   5.359467  14.955651
  Angles:   90.000000  90.512712  90.000000

Effective grid spacing dv^(1/3) = 0.1947

                     log10-error:    total        iterations:
           time      wfs    density  energy       fermi  poisson
iter:   1  07:10:54  +1.49   +inf  -311.554303    3      18
iter:   2  07:11:23  +0.30   +inf  -313.119226    3
iter:   3  07:11:57  -0.29   +inf  -313.546971    2
iter:   4  07:12:35  -0.47  -1.13  -310.690236    3      15
iter:   5  07:13:09  -0.43  -1.16  -323.757248    3      23
iter:   6  07:13:44  -0.12  -1.12  -337.165376    4      33
iter:   7  07:14:18  -0.26  -1.20  -316.794419    3      35
iter:   8  07:14:53  -0.57  -1.27  -304.425696    4      32
iter:   9  07:15:27  -0.86  -1.38  -308.992156    4      30
iter:  10  07:16:02  -1.04  -1.32  -301.454797    4      29
iter:  11  07:16:36  -1.56  -1.42  -301.992029    3      26
iter:  12  07:17:11  -1.49  -1.43  -301.672977    4      27
iter:  13  07:17:47  -1.54  -1.44  -304.937097    4      29
iter:  14  07:18:20  -1.31  -1.38  -301.678377    4      27
iter:  15  07:18:54  -1.46  -1.45  -303.519057    4      26
iter:  16  07:19:28  -1.16  -1.44  -304.540639    3      29
iter:  17  07:20:02  -1.25  -1.41  -303.324406    3      26
iter:  18  07:20:38  -1.28  -1.45  -302.399606    3      26
iter:  19  07:21:13  -1.70  -1.47  -300.974594    3      28
iter:  20  07:21:54  -2.05  -1.51  -299.874828    3      24
iter:  21  07:22:33  -2.08  -1.55  -301.120016    4      23
iter:  22  07:23:06  -1.71  -1.53  -300.728918    3      23
iter:  23  07:23:42  -1.73  -1.54  -302.205893    3      25
iter:  24  07:24:16  -1.29  -1.50  -310.029821    3      29
iter:  25  07:24:51  -1.35  -1.38  -303.925297    3      31
iter:  26  07:25:25  -1.46  -1.50  -300.698953    4      25
iter:  27  07:26:00  -1.65  -1.57  -303.273110    4      24
iter:  28  07:26:35  -1.68  -1.52  -300.453650    3      27
iter:  29  07:27:09  -2.16  -1.60  -299.956745    3      22
iter:  30  07:27:44  -1.72  -1.63  -306.938124    3      29
iter:  31  07:28:18  -1.43  -1.45  -302.165951    3      31
iter:  32  07:28:52  -1.74  -1.56  -300.171142    3      24
iter:  33  07:29:26  -1.88  -1.65  -304.591363    4      28
iter:  34  07:30:02  -1.71  -1.50  -300.785585    3      28
iter:  35  07:30:36  -1.90  -1.65  -300.592332    3      22
iter:  36  07:31:16  -1.55  -1.64  -306.959378    3      30
iter:  37  07:31:51  -1.44  -1.48  -300.816784    4      30
iter:  38  07:32:25  -1.88  -1.66  -300.157410    3      17
iter:  39  07:32:59  -1.92  -1.70  -301.684962    3      22
iter:  40  07:33:34  -1.83  -1.65  -300.263168    3      24
iter:  41  07:34:10  -2.15  -1.73  -300.290865    3      23
iter:  42  07:34:48  -1.83  -1.71  -301.827659    3      23
iter:  43  07:35:22  -1.65  -1.66  -299.990114    3      24
iter:  44  07:36:00  -2.18  -1.78  -300.047054    2      20
iter:  45  07:36:38  -2.09  -1.78  -302.510200    3      26
iter:  46  07:37:11  -1.77  -1.64  -300.414672    3      28
iter:  47  07:37:46  -2.05  -1.76  -300.974093    2      25
iter:  48  07:38:21  -1.85  -1.73  -301.802219    3      27
iter:  49  07:38:54  -1.77  -1.68  -299.877073    3      22
iter:  50  07:39:29  -2.26  -1.87  -300.093961    3      19
iter:  51  07:40:03  -1.87  -1.82  -303.469944    4      28
iter:  52  07:40:37  -1.77  -1.64  -299.784863    4      28
iter:  53  07:41:09  -2.53  -1.90  -299.788269    3      10
iter:  54  07:41:43  -2.04  -1.90  -300.828684    4      20
iter:  55  07:42:18  -1.73  -1.86  -300.338981    4      23
iter:  56  07:42:52  -2.15  -1.87  -300.519635    3      24
iter:  57  07:43:27  -2.02  -1.90  -300.939638    3      26
iter:  58  07:44:02  -1.88  -1.91  -300.172337    3      24
iter:  59  07:44:36  -2.21  -1.99  -299.777748    3      18
iter:  60  07:45:10  -2.46  -2.08  -300.366848    3      21
iter:  61  07:45:44  -2.13  -1.98  -300.226268    3      24
iter:  62  07:46:19  -2.42  -1.98  -299.716903    3      23
iter:  63  07:46:54  -2.19  -2.16  -301.315552    3      25
[...]
iter: 168  08:52:08  -6.97  -4.21  -299.584097    2      2
iter: 169  08:52:39  -7.39  -4.25  -299.583964    2      2
iter: 170  08:53:11  -6.87  -4.30  -299.584180    2      2
iter: 171  08:53:43  -6.83  -4.18  -299.584063    2      2
iter: 172  08:54:14  -7.11  -4.32  -299.583996    2      2
iter: 173  08:54:46  -6.75  -4.30  -299.583869    2      3
iter: 174  08:55:19  -6.62  -4.28  -299.583988    2      3
iter: 175  08:55:52  -6.47  -4.29  -299.584188    2      3
iter: 176  08:56:23  -6.77  -4.34  -299.584034    2      2
iter: 177  08:56:55  -6.85  -4.32  -299.583912    2      3
iter: 178  08:57:26  -7.00  -4.45  -299.584230    2      2
iter: 179  08:57:57  -7.17  -4.47  -299.584061    2      2
iter: 180  08:58:29  -6.69  -4.58  -299.584038    2      3
iter: 181  08:59:00  -6.66  -4.24  -299.584184    2      3
iter: 182  08:59:31  -7.82  -4.66  -299.584154    2      1

Converged after 182 iterations.

Dipole moment: (-26.232294, -6.624115, 2.221544) |e|*Ang

Energy contributions relative to reference atoms: (reference = -648925.267931)

Kinetic:       +205.662776
Potential:     -238.899742
External:        +0.000000
XC:            -278.797225
Entropy (-ST):   -2.830912
Local:          +13.865493
Free energy:   -300.999609
Extrapolated:  -299.584154

Fermi level: 1.57078

 Band  Eigenvalues  Occupancy
    0    -22.24830    2.00000
    1    -22.23430    2.00000
    2    -22.15079    2.00000
    3    -22.12115    2.00000
    4    -22.05090    2.00000
    5    -22.03481    2.00000
    6    -21.98268    2.00000
    7    -21.95549    2.00000
    8    -21.93332    2.00000
    9    -21.92668    2.00000
   10    -21.90000    2.00000
   11    -21.83464    2.00000
   12    -21.70612    2.00000
   13    -21.70379    2.00000
   14    -21.64540    2.00000
   15    -21.59491    2.00000
   16    -21.58029    2.00000
   17    -21.51414    2.00000
   18    -21.51194    2.00000
   19    -21.48505    2.00000
   20    -21.43544    2.00000
   21    -21.41599    2.00000
   22    -21.39503    2.00000
   23    -21.35094    2.00000
   24    -21.30556    2.00000
   25    -21.30358    2.00000
   26    -21.29588    2.00000
   27    -21.23334    2.00000
   28    -21.12603    2.00000
   29    -21.10049    2.00000
   30    -21.04864    2.00000
   31    -20.99807    2.00000
   32    -16.97773    2.00000
   33    -16.96640    2.00000
   34    -16.95775    2.00000
   35    -16.91954    2.00000
   36     -5.39686    2.00000
   37     -5.37992    2.00000
   38     -5.29811    2.00000
   39     -5.20687    2.00000
   40     -5.18811    2.00000
   41     -5.15074    2.00000
   42     -5.14918    2.00000
   43     -5.10118    2.00000
   44     -4.88247    2.00000
   45     -4.82032    2.00000
   46     -4.74440    2.00000
   47     -4.63891    2.00000
   48     -4.59373    2.00000
   49     -4.57314    2.00000
   50     -4.53663    2.00000
   51     -4.52192    2.00000
   52     -4.49725    2.00000
   53     -4.48646    2.00000
   54     -4.47318    2.00000
   55     -4.46980    2.00000
   56     -4.39848    2.00000
   57     -4.38451    2.00000
   58     -4.34888    2.00000
   59     -4.32207    2.00000
[...]
  273     13.15669    0.00000
  274     13.22482    0.00000
  275     13.26359    0.00000
  276     13.33017    0.00000
  277     13.39900    0.00000
  278     13.45647    0.00000
  279     13.55959    0.00000
  280     13.68234    0.00000
  281     13.97580    0.00000
  282     14.00552    0.00000
  283     14.21442    0.00000
  284     14.39473    0.00000
  285     14.43046    0.00000
  286     14.49769    0.00000
  287     14.54086    0.00000