User:   murakami@tssm1.eng.shizuoka.ac.jp
Date:   Thu Mar 28 11:59:39 2019
Arch:   x86_64
Pid:    31289
Python: 3.6.5
gpaw:   /home/murakami/.local/lib/python3.6/site-packages/gpaw
_gpaw:  /home/murakami/.local/lib/python3.6/site-packages/
        _gpaw.cpython-36m-x86_64-linux-gnu.so
ase:    /home/murakami/.local/lib/python3.6/site-packages/ase (version 3.16.2)
numpy:  /home/murakami/.local/lib/python3.6/site-packages/numpy (version 1.15.2)
scipy:  /home/murakami/.local/lib/python3.6/site-packages/scipy (version 1.1.0)
units:  Angstrom and eV
cores:  1

Input parameters:
  kpts: {size: (1, 1, 1)}
  maxiter: 300
  xc: PBE

System changes: positions, numbers, cell, pbc, initial_charges, initial_magmoms

Initialize ...

Fe-setup:
  name: Iron
  id: 37abbd8d6c3c35915a9b583b742da910
  Z: 26
  valence: 8
  core: 18
  charge: 0.0
  file: /home/murakami/Public/gpaw-setups-0.9.20000/Fe.PBE.gz
  cutoffs: 1.06(comp), 2.06(filt), 2.67(core), lmax=2
  valence states:
                energy  radius
    4s(2.00)    -5.291   1.164
    4p(0.00)    -1.326   1.058
    3d(6.00)    -7.505   1.058
    *s          21.920   1.164
    *p          25.885   1.058
    *d          19.706   1.058

  Using partial waves for Fe as LCAO basis

O-setup:
  name: Oxygen
  id: 32ecd46bf208036f09c70b0ec9a88b78
  Z: 8
  valence: 6
  core: 2
  charge: 0.0
  file: /home/murakami/Public/gpaw-setups-0.9.20000/O.PBE.gz
  cutoffs: 0.67(comp), 1.17(filt), 0.83(core), lmax=2
  valence states:
                energy  radius
    2s(2.00)   -23.961   0.688
    2p(4.00)    -9.029   0.598
    *s           3.251   0.688
    *p          18.182   0.598
    *d           0.000   0.619

[...]

F-setup:
  name: Fluorine
  id: 9cd46ba2a61e170ad72278be75b55cc0
  Z: 9
  valence: 7
  core: 2
  charge: 0.0
  file: /home/murakami/Public/gpaw-setups-0.9.20000/F.PBE.gz
  cutoffs: 0.64(comp), 1.14(filt), 0.74(core), lmax=2
  valence states:
                energy  radius
    2s(2.00)   -29.898   0.635
    2p(5.00)   -11.110   0.635
    *s          -2.687   0.635
    *p          16.102   0.635
    *d           0.000   0.635

  Using partial waves for F as LCAO basis

Reference energy: -648925.267931

Spin-paired calculation

Occupation numbers:
  Fermi-Dirac: width=0.1000 eV

Convergence criteria:
  Maximum total energy change: 0.0005 eV / electron
  Maximum integral of absolute density change: 0.0001 electrons
  Maximum integral of absolute eigenstate change: 4e-08 eV^2
  Maximum number of iterations: 300

Symmetries present (total): 1

  ( 1  0  0)
  ( 0  1  0)
  ( 0  0  1)

1 k-point (Gamma)
1 k-point in the irreducible part of the Brillouin zone
       k-points in crystal coordinates                weights
   0:     0.00000000    0.00000000    0.00000000          1/1

Eigensolver
   Davidson(niter=1, smin=None, normalize=True)

Densities:
  Coarse grid: 48*28*76 grid
  Fine grid: 96*56*152 grid
  Total Charge: 0.000000

Density mixing:
  Method: separate
  Backend: pulay
  Linear mixing parameter: 0.05
  Mixing with 5 old densities
  Damping of long wave oscillations: 50

Hamiltonian:
  XC and Coulomb potentials evaluated on a 96*56*152 grid
  Using the PBE Exchange-Correlation functional
  Interpolation: tri-quintic (5. degree polynomial)
  Poisson solver: Jacobi solver with 4 multi-grid levels
    Coarsest grid: 12 x 7 x 19 points
    Stencil: 8*3+1=25 point O(h^6) finite-difference Laplacian
    Max iterations: 1000
    Tolerance: 2.000000e-10

Total number of cores used: 1

Number of atoms: 52
Number of atomic orbitals: 288
Number of bands in calculation: 288
Bands to converge: occupied states only
Number of valence electrons: 376

... initialized

Initializing position-dependent things.

Density initialized from atomic densities
Creating initial wave functions:
  288 bands from LCAO basis set

                          Fe
              F       F      O
             Fe
               O        F       F
                            Fe
         F       F        F
               Fe
            FFe    F   F   F F
                       Fe
         F     F        F
             Fe  O          Fe
               Fe Fe      F     F
            F          Fe  O
                   F  F     Fe
              F           Fe F
         F     F        F
             Fe
          F     F Fe     F
            F
                    F     F Fe

Positions:
   0 Fe     1.542848    2.591830    2.677597    ( 0.0000,  0.0000,  0.0000)
   1 Fe     1.542848    2.763457   10.155423    ( 0.0000,  0.0000,  0.0000)
   2 Fe     6.243444    5.269474    2.544827    ( 0.0000,  0.0000,  0.0000)
   3 Fe     6.243444    0.085813   10.113358    ( 0.0000,  0.0000,  0.0000)
   4 Fe     1.648330    2.532258   14.492306    ( 0.0000,  0.0000,  0.0000)
   5 Fe     1.648330    2.823029    7.059751    ( 0.0000,  0.0000,  0.0000)
   6 Fe     6.348925    5.209902   14.495512    ( 0.0000,  0.0000,  0.0000)
   7 Fe     6.348925    0.145385    7.017686    ( 0.0000,  0.0000,  0.0000)
   8 Fe     3.117708    0.157520   12.271643    ( 0.0000,  0.0000,  0.0000)
   9 Fe     3.117708    5.197767    4.793817    ( 0.0000,  0.0000,  0.0000)
  10 Fe     7.818303    2.835164   12.229578    ( 0.0000,  0.0000,  0.0000)
  11 Fe     7.804643    2.520123    4.751875    ( 0.0000,  0.0000,  0.0000)
  12 Fe     3.136416    0.023135    7.705724    ( 0.0000,  0.0000,  0.0000)
  13 Fe     3.136416    5.332152    0.227899    ( 0.0000,  0.0000,  0.0000)
  14 Fe     7.837011    2.729488    7.663660    ( 0.0000,  0.0000,  0.0000)
  15 Fe     7.837011    2.654509    0.185834    ( 0.0000,  0.0000,  0.0000)
  16 O      2.907450    1.432047   13.814659    ( 0.0000,  0.0000,  0.0000)
  17 O      2.907450    3.923240    6.336834    ( 0.0000,  0.0000,  0.0000)
  18 O      7.608045    4.109690   13.772595    ( 0.0000,  0.0000,  0.0000)
  19 O      7.608045    1.245597    6.294769    ( 0.0000,  0.0000,  0.0000)
  20 F      0.036298    1.964667    3.648091    ( 0.0000,  0.0000,  0.0000)
  21 F      0.036298    3.348243   11.125917    ( 0.0000,  0.0000,  0.0000)
  22 F      4.736893    4.610940    3.606027    ( 0.0000,  0.0000,  0.0000)
  23 F      4.736893    0.702389   11.083852    ( 0.0000,  0.0000,  0.0000)
  24 F      0.243622    2.117357    8.659520    ( 0.0000,  0.0000,  0.0000)
  25 F      0.243622    3.192827    1.181694    ( 0.0000,  0.0000,  0.0000)
  26 F      4.944218    4.795001    8.617455    ( 0.0000,  0.0000,  0.0000)
  27 F      4.944218    0.560286    1.139630    ( 0.0000,  0.0000,  0.0000)
  28 F      1.655719    1.146942    1.234055    ( 0.0000,  0.0000,  0.0000)
  29 F      1.655719    4.208345    8.711881    ( 0.0000,  0.0000,  0.0000)
  30 F      6.356314    3.824585    1.191991    ( 0.0000,  0.0000,  0.0000)
  31 F      6.356314    1.530702    8.598268    ( 0.0000,  0.0000,  0.0000)
  32 F      1.706072    1.089506   11.043749    ( 0.0000,  0.0000,  0.0000)
  33 F      1.612756    4.265781    3.566758    ( 0.0000,  0.0000,  0.0000)
  34 F      6.406667    3.767150   11.001684    ( 0.0000,  0.0000,  0.0000)
  35 F      6.406667    1.588137    3.589858    ( 0.0000,  0.0000,  0.0000)
  36 F      1.776853    1.081018    6.320255    ( 0.0000,  0.0000,  0.0000)
  37 F      1.776853    4.274269   13.798081    ( 0.0000,  0.0000,  0.0000)
  38 F      6.477449    3.747624    6.278191    ( 0.0000,  0.0000,  0.0000)
  39 F      6.524455    1.596625   13.755596    ( 0.0000,  0.0000,  0.0000)
  40 F      2.759033    1.857578    8.623789    ( 0.0000,  0.0000,  0.0000)
  41 F      2.759033    3.497709    1.145964    ( 0.0000,  0.0000,  0.0000)
  42 F      7.459629    4.535221    8.581725    ( 0.0000,  0.0000,  0.0000)
  43 F      7.459629    0.820066    1.008587    ( 0.0000,  0.0000,  0.0000)
  44 F      2.849557    1.636635    3.683786    ( 0.0000,  0.0000,  0.0000)
  45 F      2.849557    3.718652   11.161611    ( 0.0000,  0.0000,  0.0000)
  46 F      7.550153    4.314278    3.495739    ( 0.0000,  0.0000,  0.0000)
  47 F      7.550153    1.041009   11.119547    ( 0.0000,  0.0000,  0.0000)
  48 F      4.613296    0.721079    6.219990    ( 0.0000,  0.0000,  0.0000)
  49 F      4.613296    4.634208   13.649090    ( 0.0000,  0.0000,  0.0000)
  50 F      9.313892    3.398722    6.242220    ( 0.0000,  0.0000,  0.0000)
  51 F      9.313892    1.956565   13.720045    ( 0.0000,  0.0000,  0.0000)

Unit cell:
           periodic     x           y           z      points  spacing
  1. axis:    yes    9.401191    0.000000   -0.084129    48     0.1959
  2. axis:    yes    0.000000    5.355287    0.000000    28     0.1913
  3. axis:    yes    0.000000    0.000000   14.955651    76     0.1968

  Lengths:   9.401567   5.355287  14.955651
  Angles:   90.000000  90.512712  90.000000

Effective grid spacing dv^(1/3) = 0.1946

                     log10-error:    total        iterations:
           time      wfs    density  energy       fermi  poisson
iter:   1  12:00:41  +1.49   +inf  -311.559566    3      18
iter:   2  12:01:08  +0.30   +inf  -313.127588    3
iter:   3  12:01:36  -0.29   +inf  -313.556001    2
iter:   4  12:02:10  -0.46  -1.13  -310.697349    3      18
iter:   5  12:02:44  -0.45  -1.16  -324.491395    3      28
iter:   6  12:03:20  -0.12  -1.13  -314.944507    36     32
iter:   7  12:03:56  -0.31  -1.29  -307.862884    3      32
iter:   8  12:04:30  -0.71  -1.34  -305.204121    3      31
iter:   9  12:05:04  -0.99  -1.36  -303.686840    3      29
iter:  10  12:05:38  -1.29  -1.39  -301.261635    3      27
iter:  11  12:06:12  -1.65  -1.43  -301.180685    3      26
iter:  12  12:06:46  -1.59  -1.45  -301.438756    4      27
iter:  13  12:07:26  -1.70  -1.43  -301.773565    3      25
iter:  14  12:08:08  -1.60  -1.44  -303.764497    3      29
iter:  15  12:08:50  -1.45  -1.42  -303.666700    3      30
iter:  16  12:09:25  -1.23  -1.44  -308.977790    3      31
iter:  17  12:09:59  -1.33  -1.37  -301.899991    3      29
iter:  18  12:10:35  -1.52  -1.49  -302.913401    3      28
iter:  19  12:11:09  -1.79  -1.45  -299.945792    3      26
iter:  20  12:11:42  -2.04  -1.55  -301.418562    3      23
iter:  21  12:12:17  -1.65  -1.51  -304.214426    3      30
iter:  22  12:12:52  -1.55  -1.45  -300.339443    4      29
iter:  23  12:13:26  -1.94  -1.56  -300.917524    4      16
iter:  24  12:14:01  -1.54  -1.57  -303.194028    4      25
iter:  25  12:14:34  -1.30  -1.54  -304.008608    4      28
iter:  26  12:15:08  -1.56  -1.50  -301.372774    3      24
iter:  27  12:15:42  -1.59  -1.59  -302.318445    4      24
iter:  28  12:16:16  -1.23  -1.61  -306.360104    2      30
iter:  29  12:16:52  -1.41  -1.49  -302.845005    3      30
iter:  30  12:17:27  -1.46  -1.58  -301.382090    3      26
iter:  31  12:18:08  -1.82  -1.64  -300.170855    3      21
iter:  32  12:18:48  -2.47  -1.72  -299.689630    3      17
iter:  33  12:19:22  -1.92  -1.77  -302.140466    3      25
iter:  34  12:19:56  -1.74  -1.63  -300.986003    3      28
iter:  35  12:20:30  -1.87  -1.67  -301.240051    3      27
iter:  36  12:21:04  -1.87  -1.68  -300.233923    3      26
iter:  37  12:21:37  -2.04  -1.75  -300.490740    3      23
iter:  38  12:22:11  -2.10  -1.75  -299.621600    3      19
iter:  39  12:22:44  -2.68  -1.82  -299.997437    3      20
iter:  40  12:23:19  -2.20  -1.78  -300.952953    3      26
iter:  41  12:23:54  -1.89  -1.70  -301.278007    3      27
iter:  42  12:24:28  -1.87  -1.71  -300.593282    3      27
iter:  43  12:25:01  -1.96  -1.76  -301.099163    3      26
iter:  44  12:25:35  -1.91  -1.74  -299.778798    3      24
iter:  45  12:26:07  -2.64  -1.85  -299.687250    3      15
iter:  46  12:26:41  -2.22  -1.88  -301.990417    3      26
iter:  47  12:27:15  -1.88  -1.67  -300.909313    3      28
iter:  48  12:27:55  -1.94  -1.76  -300.501845    3      26
iter:  49  12:28:35  -2.12  -1.80  -300.499528    3      25
iter:  50  12:29:08  -2.18  -1.79  -299.891219    3      23
iter:  51  12:29:42  -2.77  -1.88  -299.633903    3      13
iter:  52  12:30:15  -2.24  -1.93  -302.231911    3      26
iter:  53  12:30:49  -1.92  -1.66  -300.450183    3      28
iter:  54  12:31:23  -2.17  -1.83  -299.911704    3      23
iter:  55  12:31:58  -2.39  -1.90  -300.159863    3      22
iter:  56  12:32:32  -2.24  -1.87  -300.337095    3      24
iter:  57  12:33:05  -2.29  -1.88  -299.739687    3      21
iter:  58  12:33:41  -2.23  -1.96  -300.868239    3      24
iter:  59  12:34:15  -2.08  -1.82  -300.210255    3      26
iter:  60  12:34:49  -2.23  -1.89  -299.950303    3      23
iter:  61  12:35:22  -2.43  -1.96  -299.803612    3      21
iter:  62  12:35:55  -2.25  -1.99  -301.109606    3      25
iter:  63  12:36:29  -2.21  -1.80  -299.686424    3      26
[...]
iter: 167  13:33:52  -6.18  -4.07  -299.579751    2      4
iter: 168  13:34:23  -6.07  -3.90  -299.579646    2      3
iter: 169  13:34:54  -6.24  -4.18  -299.579670    2      3
iter: 170  13:35:26  -6.11  -3.98  -299.579666    2      3
iter: 171  13:35:56  -6.55  -4.07  -299.579487    2      2
iter: 172  13:36:29  -7.09  -4.17  -299.579564    2      2
iter: 173  13:37:02  -7.17  -4.25  -299.579641    2      2
iter: 174  13:37:40  -6.64  -4.23  -299.579625    2      3
iter: 175  13:38:18  -6.62  -4.12  -299.579617    1      2
iter: 176  13:38:55  -7.01  -4.25  -299.579601    2      2
iter: 177  13:39:26  -7.29  -4.28  -299.579586    2      2
iter: 178  13:39:58  -6.98  -4.36  -299.579642    2      3
iter: 179  13:40:29  -6.69  -4.25  -299.579615    2      2
iter: 180  13:41:00  -7.17  -4.29  -299.579598    2      2
iter: 181  13:41:32  -7.85  -4.40  -299.579537    1      1

Converged after 181 iterations.

Dipole moment: (-28.233726, -6.962503, 2.166101) |e|*Ang

Energy contributions relative to reference atoms: (reference = -648925.267931)

Kinetic:       +209.883180
Potential:     -242.200763
External:        +0.000000
XC:            -279.676904
Entropy (-ST):   -2.832694
Local:          +13.831297
Free energy:   -300.995884
Extrapolated:  -299.579537

Fermi level: 1.58737

 Band  Eigenvalues  Occupancy
    0    -22.38558    2.00000
    1    -22.24583    2.00000
    2    -22.19718    2.00000
    3    -22.14702    2.00000
    4    -22.09207    2.00000
    5    -22.03205    2.00000
    6    -22.02144    2.00000
    7    -21.95742    2.00000
    8    -21.93923    2.00000
    9    -21.92419    2.00000
   10    -21.86807    2.00000
   11    -21.86012    2.00000
   12    -21.85352    2.00000
   13    -21.73972    2.00000
   14    -21.71517    2.00000
   15    -21.63940    2.00000
   16    -21.54863    2.00000
   17    -21.54593    2.00000
   18    -21.50719    2.00000
   19    -21.46170    2.00000
   20    -21.45297    2.00000
   21    -21.41017    2.00000
   22    -21.35462    2.00000
   23    -21.33597    2.00000
   24    -21.29103    2.00000
   25    -21.19913    2.00000
   26    -21.17131    2.00000
   27    -21.14417    2.00000
   28    -21.11834    2.00000
   29    -21.09384    2.00000
   30    -20.99854    2.00000
   31    -20.95357    2.00000
   32    -17.03722    2.00000
   33    -16.95110    2.00000
   34    -16.95024    2.00000
   35    -16.88189    2.00000
   36     -5.51200    2.00000
   37     -5.41307    2.00000
   38     -5.32488    2.00000
   39     -5.22139    2.00000
   40     -5.21194    2.00000
   41     -5.17967    2.00000
   42     -5.14689    2.00000
   43     -5.10047    2.00000
   44     -4.91563    2.00000
   45     -4.85278    2.00000
   46     -4.80334    2.00000
   47     -4.70915    2.00000
   48     -4.65584    2.00000
   49     -4.56877    2.00000
   50     -4.56363    2.00000
   51     -4.52225    2.00000
   52     -4.51980    2.00000
   53     -4.49393    2.00000
   54     -4.48960    2.00000
   55     -4.45266    2.00000
   56     -4.41275    2.00000
   57     -4.38013    2.00000
   58     -4.34949    2.00000
   59     -4.34060    2.00000
[...]
  273     13.17190    0.00000
  274     13.24659    0.00000
  275     13.27987    0.00000
  276     13.30932    0.00000
  277     13.40741    0.00000
  278     13.47613    0.00000
  279     13.53449    0.00000
  280     13.71525    0.00000
  281     14.01934    0.00000
  282     14.05296    0.00000
  283     14.23411    0.00000
  284     14.38811    0.00000
  285     14.42428    0.00000
  286     14.50218    0.00000
  287     14.55080    0.00000