User:   murakami@tssm1.eng.shizuoka.ac.jp
Date:   Wed Mar 27 17:16:05 2019
Arch:   x86_64
Pid:    31289
Python: 3.6.5
gpaw:   /home/murakami/.local/lib/python3.6/site-packages/gpaw
_gpaw:  /home/murakami/.local/lib/python3.6/site-packages/
        _gpaw.cpython-36m-x86_64-linux-gnu.so
ase:    /home/murakami/.local/lib/python3.6/site-packages/ase (version 3.16.2)
numpy:  /home/murakami/.local/lib/python3.6/site-packages/numpy (version 1.15.2)
scipy:  /home/murakami/.local/lib/python3.6/site-packages/scipy (version 1.1.0)
units:  Angstrom and eV
cores:  1

Input parameters:
  kpts: {size: (1, 1, 1)}
  maxiter: 300
  xc: PBE

System changes: positions, numbers, cell, pbc, initial_charges, initial_magmoms

Initialize ...

Fe-setup:
  name: Iron
  id: 37abbd8d6c3c35915a9b583b742da910
  Z: 26
  valence: 8
  core: 18
  charge: 0.0
  file: /home/murakami/Public/gpaw-setups-0.9.20000/Fe.PBE.gz
  cutoffs: 1.06(comp), 2.06(filt), 2.67(core), lmax=2
  valence states:
                energy  radius
    4s(2.00)    -5.291   1.164
    4p(0.00)    -1.326   1.058
    3d(6.00)    -7.505   1.058
    *s          21.920   1.164
    *p          25.885   1.058
    *d          19.706   1.058

  Using partial waves for Fe as LCAO basis

O-setup:
  name: Oxygen
  id: 32ecd46bf208036f09c70b0ec9a88b78
  Z: 8
  valence: 6
  core: 2
  charge: 0.0
  file: /home/murakami/Public/gpaw-setups-0.9.20000/O.PBE.gz
  cutoffs: 0.67(comp), 1.17(filt), 0.83(core), lmax=2
  valence states:
                energy  radius
    2s(2.00)   -23.961   0.688
    2p(4.00)    -9.029   0.598
    *s           3.251   0.688
    *p          18.182   0.598
    *d           0.000   0.619

[...]

F-setup:
  name: Fluorine
  id: 9cd46ba2a61e170ad72278be75b55cc0
  Z: 9
  valence: 7
  core: 2
  charge: 0.0
  file: /home/murakami/Public/gpaw-setups-0.9.20000/F.PBE.gz
  cutoffs: 0.64(comp), 1.14(filt), 0.74(core), lmax=2
  valence states:
                energy  radius
    2s(2.00)   -29.898   0.635
    2p(5.00)   -11.110   0.635
    *s          -2.687   0.635
    *p          16.102   0.635
    *d           0.000   0.635

  Using partial waves for F as LCAO basis

Reference energy: -648925.267931

Spin-paired calculation

Occupation numbers:
  Fermi-Dirac: width=0.1000 eV

Convergence criteria:
  Maximum total energy change: 0.0005 eV / electron
  Maximum integral of absolute density change: 0.0001 electrons
  Maximum integral of absolute eigenstate change: 4e-08 eV^2
  Maximum number of iterations: 300

Symmetries present (total): 1

  ( 1  0  0)
  ( 0  1  0)
  ( 0  0  1)

1 k-point (Gamma)
1 k-point in the irreducible part of the Brillouin zone
       k-points in crystal coordinates                weights
   0:     0.00000000    0.00000000    0.00000000          1/1

Eigensolver
   Davidson(niter=1, smin=None, normalize=True)

Densities:
  Coarse grid: 48*28*76 grid
  Fine grid: 96*56*152 grid
  Total Charge: 0.000000

Density mixing:
  Method: separate
  Backend: pulay
  Linear mixing parameter: 0.05
  Mixing with 5 old densities
  Damping of long wave oscillations: 50

Hamiltonian:
  XC and Coulomb potentials evaluated on a 96*56*152 grid
  Using the PBE Exchange-Correlation functional
  Interpolation: tri-quintic (5. degree polynomial)
  Poisson solver: Jacobi solver with 4 multi-grid levels
    Coarsest grid: 12 x 7 x 19 points
    Stencil: 12*3+1=37 point O(h^6) finite-difference Laplacian
    Max iterations: 1000
    Tolerance: 2.000000e-10

Total number of cores used: 1

Number of atoms: 52
Number of atomic orbitals: 288
Number of bands in calculation: 288
Bands to converge: occupied states only
Number of valence electrons: 376

... initialized

Initializing position-dependent things.

Density initialized from atomic densities
Creating initial wave functions:
  288 bands from LCAO basis set

                          Fe
              F       F
             Fe              O
               O        F       F
                            Fe
         F       F        F
               Fe
            FFe    F   F   F
              F              F
         F     F       Fe
                        F   Fe
             Fe  O        F     F
               Fe Fe
            F      F   Fe  O
              F       F     Fe
                          Fe
         F   FeF        F
                         F
          F     F Fe
            F
                    F     F Fe

Positions:
   0 Fe     1.565671    2.593853    2.677597    ( 0.0000,  0.0000,  0.0000)
   1 Fe     1.561376    2.730075   10.155423    ( 0.0000,  0.0000,  0.0000)
   2 Fe     6.291928    5.273587    2.635533    ( 0.0000,  0.0000,  0.0000)
   3 Fe     6.236651    0.085880   10.113358    ( 0.0000,  0.0000,  0.0000)
   4 Fe     1.661699    2.534235   14.537576    ( 0.0000,  0.0000,  0.0000)
   5 Fe     1.670086    2.825232    7.059751    ( 0.0000,  0.0000,  0.0000)
   6 Fe     6.387956    5.213968   14.495512    ( 0.0000,  0.0000,  0.0000)
   7 Fe     6.345020    0.145499    7.017686    ( 0.0000,  0.0000,  0.0000)
   8 Fe     3.110387    0.197352   12.271643    ( 0.0000,  0.0000,  0.0000)
   9 Fe     3.163841    5.201824    4.885406    ( 0.0000,  0.0000,  0.0000)
  10 Fe     7.836263    2.837377   12.229578    ( 0.0000,  0.0000,  0.0000)
  11 Fe     7.838844    2.522090    4.751753    ( 0.0000,  0.0000,  0.0000)
  12 Fe     3.130846    0.023153    7.705724    ( 0.0000,  0.0000,  0.0000)
  13 Fe     3.187262    5.336314    0.311621    ( 0.0000,  0.0000,  0.0000)
  14 Fe     7.857102    2.702886    7.663660    ( 0.0000,  0.0000,  0.0000)
  15 Fe     7.862259    2.656581    0.185834    ( 0.0000,  0.0000,  0.0000)
  16 O      2.910809    1.433164   13.814659    ( 0.0000,  0.0000,  0.0000)
  17 O      2.940283    3.926303    6.336834    ( 0.0000,  0.0000,  0.0000)
  18 O      7.637065    4.112898   13.772595    ( 0.0000,  0.0000,  0.0000)
  19 O      7.615218    1.246569    6.294769    ( 0.0000,  0.0000,  0.0000)
  20 F      0.052495    1.976797    3.648091    ( 0.0000,  0.0000,  0.0000)
  21 F      0.060358    3.382670   11.125917    ( 0.0000,  0.0000,  0.0000)
  22 F      4.778752    4.656530    3.606027    ( 0.0000,  0.0000,  0.0000)
  23 F      4.721445    0.702937   11.083976    ( 0.0000,  0.0000,  0.0000)
  24 F      0.257427    2.119010    8.659520    ( 0.0000,  0.0000,  0.0000)
  25 F      0.273387    3.200808    1.181694    ( 0.0000,  0.0000,  0.0000)
  26 F      4.983029    4.798743    8.714059    ( 0.0000,  0.0000,  0.0000)
  27 F      4.948701    0.560724    1.139630    ( 0.0000,  0.0000,  0.0000)
  28 F      1.753498    1.147837    1.233270    ( 0.0000,  0.0000,  0.0000)
  29 F      1.759034    4.242843    8.711261    ( 0.0000,  0.0000,  0.0000)
  30 F      6.392032    3.827571    1.191991    ( 0.0000,  0.0000,  0.0000)
  31 F      6.364449    1.531896    8.669816    ( 0.0000,  0.0000,  0.0000)
  32 F      1.708231    1.090357   11.043749    ( 0.0000,  0.0000,  0.0000)
  33 F      1.744271    4.269110    3.565923    ( 0.0000,  0.0000,  0.0000)
  34 F      6.434488    3.770090   11.001684    ( 0.0000,  0.0000,  0.0000)
  35 F      6.419180    1.586745    3.523859    ( 0.0000,  0.0000,  0.0000)
  36 F      1.782468    1.081862    6.320255    ( 0.0000,  0.0000,  0.0000)
  37 F      1.807470    4.277605   13.798081    ( 0.0000,  0.0000,  0.0000)
  38 F      6.508725    3.761596    6.278191    ( 0.0000,  0.0000,  0.0000)
  39 F      6.482405    1.597871   13.756016    ( 0.0000,  0.0000,  0.0000)
  40 F      2.770529    1.876821    8.623789    ( 0.0000,  0.0000,  0.0000)
  41 F      2.791677    3.500439    1.145964    ( 0.0000,  0.0000,  0.0000)
  42 F      7.496615    4.538761    8.581725    ( 0.0000,  0.0000,  0.0000)
  43 F      7.466611    0.820706    1.103899    ( 0.0000,  0.0000,  0.0000)
  44 F      2.862464    1.637912    3.683786    ( 0.0000,  0.0000,  0.0000)
  45 F      2.876817    3.721555   11.161566    ( 0.0000,  0.0000,  0.0000)
  46 F      7.588721    4.317646    3.641721    ( 0.0000,  0.0000,  0.0000)
  47 F      7.551752    1.041821   11.119547    ( 0.0000,  0.0000,  0.0000)
  48 F      4.615463    0.721642    6.293168    ( 0.0000,  0.0000,  0.0000)
  49 F      4.647371    4.637825   13.762110    ( 0.0000,  0.0000,  0.0000)
  50 F      9.341726    3.401375    6.242220    ( 0.0000,  0.0000,  0.0000)
  51 F      9.322305    1.958092   13.720045    ( 0.0000,  0.0000,  0.0000)

Unit cell:
           periodic     x           y           z      points  spacing
  1. axis:    yes    9.401191    0.000000   -0.084129    48     0.1958
  2. axis:    yes    0.051322    5.359467    0.000000    28     0.1914
  3. axis:    yes   -0.011200    0.000000   14.955651    76     0.1968

  Lengths:   9.401567   5.359713  14.955655
  Angles:   90.000411  90.555620  89.451377

Effective grid spacing dv^(1/3) = 0.1947

                     log10-error:    total        iterations:
           time      wfs    density  energy       fermi  poisson
iter:   1  17:17:07  +1.49   +inf  -311.902061    3      18
iter:   2  17:17:35  +0.30   +inf  -313.475755    3
iter:   3  17:18:04  -0.29   +inf  -313.905636    2
iter:   4  17:18:39  -0.46  -1.13  -311.279668    3      18
iter:   5  17:19:22  -0.43  -1.15  -326.749149    4      30
iter:   6  17:20:07  -0.18  -1.11  -355.997501    37     36
iter:   7  17:20:52  -0.26  -1.15  -319.700654    3      36
iter:   8  17:21:30  -0.42  -1.27  -305.031132    4      30
iter:   9  17:22:07  -0.73  -1.38  -312.586953    3      32
iter:  10  17:22:44  -0.86  -1.29  -303.661501    4      31
iter:  11  17:23:19  -1.45  -1.38  -301.486074    3      26
iter:  12  17:23:56  -1.47  -1.44  -309.154785    4      30
iter:  13  17:24:37  -1.29  -1.32  -302.505917    4      31
iter:  14  17:25:25  -1.52  -1.42  -301.384398    3      24
iter:  15  17:26:15  -1.74  -1.46  -301.610785    4      24
iter:  16  17:27:06  -1.44  -1.47  -306.423306    3      29
iter:  17  17:27:54  -1.49  -1.38  -301.827543    3      29
iter:  18  17:28:31  -1.55  -1.47  -300.602721    4      23
iter:  19  17:29:06  -1.45  -1.57  -303.631735    3      19
iter:  20  17:29:42  -1.48  -1.48  -304.058455    3      26
iter:  21  17:30:18  -1.47  -1.50  -301.327304    3      26
iter:  22  17:30:55  -1.33  -1.60  -307.251498    4      30
iter:  23  17:31:32  -1.25  -1.49  -302.334019    4      30
iter:  24  17:32:08  -1.57  -1.55  -300.807189    3      23
iter:  25  17:32:45  -1.90  -1.64  -300.149566    3      18
iter:  26  17:33:18  -2.40  -1.68  -299.843129    3      8
iter:  27  17:33:53  -2.51  -1.71  -300.413841    3      20
iter:  28  17:34:29  -2.10  -1.67  -301.027958    3      26
iter:  29  17:35:05  -2.06  -1.64  -300.630030    2      26
iter:  30  17:35:41  -1.76  -1.67  -303.493301    3      27
iter:  31  17:36:19  -1.72  -1.58  -300.506603    3      26
iter:  32  17:36:55  -1.83  -1.77  -301.165500    3      24
iter:  33  17:37:39  -1.94  -1.68  -300.867399    3      25
iter:  34  17:38:22  -2.12  -1.72  -300.768316    3      25
iter:  35  17:39:03  -2.35  -1.74  -299.948831    3      25
iter:  36  17:39:37  -2.61  -1.83  -300.135041    3      11
iter:  37  17:40:12  -2.36  -1.84  -300.060611    3      16
iter:  38  17:40:47  -2.21  -1.85  -301.222509    3      23
iter:  39  17:41:22  -1.91  -1.77  -300.843039    3      21
iter:  40  17:41:58  -2.01  -1.90  -300.186060    3      23
iter:  41  17:42:34  -1.94  -2.11  -301.454156    3      25
iter:  42  17:43:11  -1.91  -1.82  -300.320457    3      24
iter:  43  17:43:48  -2.34  -2.12  -300.353619    3      21
iter:  44  17:44:22  -2.58  -2.08  -299.928022    3      19
iter:  45  17:44:55  -3.05  -2.29  -299.885548    3      7
iter:  46  17:45:28  -3.68  -2.32  -299.897169    3      7
iter:  47  17:46:02  -3.31  -2.35  -299.919300    2      14
iter:  48  17:46:38  -2.52  -2.34  -300.780389    3      24
iter:  49  17:47:14  -2.42  -1.96  -300.050487    3      24
iter:  50  17:47:54  -2.74  -2.34  -300.017872    2      20
iter:  51  17:48:36  -2.47  -2.42  -300.172782    2      15
iter:  52  17:49:17  -2.67  -2.23  -299.945201    3      19
iter:  53  17:49:51  -3.33  -2.49  -299.879701    2      11
iter:  54  17:50:25  -3.59  -2.70  -299.920098    3      15
iter:  55  17:51:00  -3.43  -2.53  -299.906922    2      18
iter:  56  17:51:34  -3.56  -2.58  -299.900416    2      16
iter:  57  17:52:09  -3.78  -2.61  -299.896052    2      15
iter:  58  17:52:43  -3.81  -2.64  -299.883342    2      13
iter:  59  17:53:16  -4.16  -2.73  -299.876362    2      5
iter:  60  17:53:50  -4.60  -2.77  -299.876830    2      6
iter:  61  17:54:25  -4.19  -2.78  -299.884416    2      10
iter:  62  17:54:59  -3.72  -2.75  -299.930288    2      16
iter:  63  17:55:33  -3.56  -2.55  -299.909678    2      18
[...]
iter:  97  18:14:53  -5.53  -3.68  -299.876506    2      3
iter:  98  18:15:25  -6.26  -4.00  -299.876221    2      3
iter:  99  18:15:57  -6.28  -4.07  -299.876309    2      2
iter: 100  18:16:30  -6.12  -4.13  -299.876353    2      3
iter: 101  18:17:02  -6.12  -3.97  -299.876232    2      3
iter: 102  18:17:36  -6.34  -4.18  -299.876428    2      3
iter: 103  18:18:09  -6.09  -4.19  -299.876228    2      3
iter: 104  18:18:48  -6.30  -4.08  -299.876431    2      3
iter: 105  18:19:24  -6.82  -4.17  -299.876211    2      2
iter: 106  18:20:00  -7.32  -4.33  -299.876203    2      2
iter: 107  18:20:36  -7.25  -4.39  -299.876265    2      2
iter: 108  18:21:08  -7.17  -4.42  -299.876272    2      2
iter: 109  18:21:42  -7.03  -4.46  -299.876449    2      2
iter: 110  18:22:15  -7.05  -4.36  -299.876241    2      2
iter: 111  18:22:47  -7.52  -4.43  -299.876275    2      1

Converged after 111 iterations.

Dipole moment: (-28.367302, -7.368806, 1.799818) |e|*Ang

Energy contributions relative to reference atoms: (reference = -648925.267931)

Kinetic:       +212.038686
Potential:     -244.465024
External:        +0.000000
XC:            -279.896742
Entropy (-ST):   -2.833491
Local:          +13.863549
Free energy:   -301.293021
Extrapolated:  -299.876275

Fermi level: 1.58260

 Band  Eigenvalues  Occupancy
    0    -22.32794    2.00000
    1    -22.29711    2.00000
    2    -22.16862    2.00000
    3    -22.16630    2.00000
    4    -22.12317    2.00000
    5    -22.05915    2.00000
    6    -22.00355    2.00000
    7    -21.97046    2.00000
    8    -21.92496    2.00000
    9    -21.89383    2.00000
   10    -21.88673    2.00000
   11    -21.80951    2.00000
   12    -21.69479    2.00000
   13    -21.66045    2.00000
   14    -21.65108    2.00000
   15    -21.63890    2.00000
   16    -21.60453    2.00000
   17    -21.59504    2.00000
   18    -21.56903    2.00000
   19    -21.53385    2.00000
   20    -21.46471    2.00000
   21    -21.41629    2.00000
   22    -21.39260    2.00000
   23    -21.34058    2.00000
   24    -21.31619    2.00000
   25    -21.27968    2.00000
   26    -21.20669    2.00000
   27    -21.16420    2.00000
   28    -21.12070    2.00000
   29    -21.07486    2.00000
   30    -20.97645    2.00000
   31    -20.88155    2.00000
   32    -17.08907    2.00000
   33    -16.98697    2.00000
   34    -16.92267    2.00000
   35    -16.92212    2.00000
   36     -5.49266    2.00000
   37     -5.39078    2.00000
   38     -5.35925    2.00000
   39     -5.26527    2.00000
   40     -5.20824    2.00000
   41     -5.18936    2.00000
   42     -5.13180    2.00000
   43     -5.06753    2.00000
   44     -4.93695    2.00000
   45     -4.84081    2.00000
   46     -4.76712    2.00000
   47     -4.69370    2.00000
   48     -4.63098    2.00000
   49     -4.62006    2.00000
   50     -4.57046    2.00000
   51     -4.52915    2.00000
   52     -4.50493    2.00000
   53     -4.49167    2.00000
   54     -4.46617    2.00000
   55     -4.46374    2.00000
   56     -4.41260    2.00000
   57     -4.38778    2.00000
   58     -4.34824    2.00000
   59     -4.33972    2.00000
[...]
  273     13.19203    0.00000
  274     13.22254    0.00000
  275     13.26416    0.00000
  276     13.34406    0.00000
  277     13.35660    0.00000
  278     13.47885    0.00000
  279     13.52285    0.00000
  280     13.71177    0.00000
  281     14.02903    0.00000
  282     14.05659    0.00000
  283     14.23627    0.00000
  284     14.37992    0.00000
  285     14.41320    0.00000
  286     14.47450    0.00000
  287     14.52467    0.00000