User:   murakami@tssm1.eng.shizuoka.ac.jp
Date:   Fri Mar 29 05:10:54 2019
Arch:   x86_64
Pid:    31289
Python: 3.6.5
gpaw:   /home/murakami/.local/lib/python3.6/site-packages/gpaw
_gpaw:  /home/murakami/.local/lib/python3.6/site-packages/
        _gpaw.cpython-36m-x86_64-linux-gnu.so
ase:    /home/murakami/.local/lib/python3.6/site-packages/ase (version 3.16.2)
numpy:  /home/murakami/.local/lib/python3.6/site-packages/numpy (version 1.15.2)
scipy:  /home/murakami/.local/lib/python3.6/site-packages/scipy (version 1.1.0)
units:  Angstrom and eV
cores:  1

Input parameters:
  kpts: {size: (1, 1, 1)}
  maxiter: 300
  xc: PBE

System changes: positions, numbers, cell, pbc, initial_charges, initial_magmoms

Initialize ...

Fe-setup:
  name: Iron
  id: 37abbd8d6c3c35915a9b583b742da910
  Z: 26
  valence: 8
  core: 18
  charge: 0.0
  file: /home/murakami/Public/gpaw-setups-0.9.20000/Fe.PBE.gz
  cutoffs: 1.06(comp), 2.06(filt), 2.67(core), lmax=2
  valence states:
                energy  radius
    4s(2.00)    -5.291   1.164
    4p(0.00)    -1.326   1.058
    3d(6.00)    -7.505   1.058
    *s          21.920   1.164
    *p          25.885   1.058
    *d          19.706   1.058

  Using partial waves for Fe as LCAO basis

O-setup:
  name: Oxygen
  id: 32ecd46bf208036f09c70b0ec9a88b78
  Z: 8
  valence: 6
  core: 2
  charge: 0.0
  file: /home/murakami/Public/gpaw-setups-0.9.20000/O.PBE.gz
  cutoffs: 0.67(comp), 1.17(filt), 0.83(core), lmax=2
  valence states:
                energy  radius
    2s(2.00)   -23.961   0.688
    2p(4.00)    -9.029   0.598
    *s           3.251   0.688
    *p          18.182   0.598
    *d           0.000   0.619

[...]

F-setup:
  name: Fluorine
  id: 9cd46ba2a61e170ad72278be75b55cc0
  Z: 9
  valence: 7
  core: 2
  charge: 0.0
  file: /home/murakami/Public/gpaw-setups-0.9.20000/F.PBE.gz
  cutoffs: 0.64(comp), 1.14(filt), 0.74(core), lmax=2
  valence states:
                energy  radius
    2s(2.00)   -29.898   0.635
    2p(5.00)   -11.110   0.635
    *s          -2.687   0.635
    *p          16.102   0.635
    *d           0.000   0.635

  Using partial waves for F as LCAO basis

Reference energy: -648925.267931

Spin-paired calculation

Occupation numbers:
  Fermi-Dirac: width=0.1000 eV

Convergence criteria:
  Maximum total energy change: 0.0005 eV / electron
  Maximum integral of absolute density change: 0.0001 electrons
  Maximum integral of absolute eigenstate change: 4e-08 eV^2
  Maximum number of iterations: 300

Symmetries present (total): 1

  ( 1  0  0)
  ( 0  1  0)
  ( 0  0  1)

1 k-point (Gamma)
1 k-point in the irreducible part of the Brillouin zone
       k-points in crystal coordinates                weights
   0:     0.00000000    0.00000000    0.00000000          1/1

Eigensolver
   Davidson(niter=1, smin=None, normalize=True)

Densities:
  Coarse grid: 48*28*76 grid
  Fine grid: 96*56*152 grid
  Total Charge: 0.000000

Density mixing:
  Method: separate
  Backend: pulay
  Linear mixing parameter: 0.05
  Mixing with 5 old densities
  Damping of long wave oscillations: 50

Hamiltonian:
  XC and Coulomb potentials evaluated on a 96*56*152 grid
  Using the PBE Exchange-Correlation functional
  Interpolation: tri-quintic (5. degree polynomial)
  Poisson solver: Jacobi solver with 4 multi-grid levels
    Coarsest grid: 12 x 7 x 19 points
    Stencil: 12*3+1=37 point O(h^6) finite-difference Laplacian
    Max iterations: 1000
    Tolerance: 2.000000e-10

Total number of cores used: 1

Number of atoms: 52
Number of atomic orbitals: 288
Number of bands in calculation: 288
Bands to converge: occupied states only
Number of valence electrons: 376

... initialized

Initializing position-dependent things.

Density initialized from atomic densities
Creating initial wave functions:
  288 bands from LCAO basis set

                          Fe
              F       F      O
             Fe
               O        F      F
                            Fe
         F       F        F
               Fe
            FFe    F  F    F F
                       Fe
         F     F        F
             Fe  O          Fe
               Fe Fe     F       F
            F          Fe  O
                   F  F     Fe
              F           Fe
        F      F        F
             Fe
          F     F Fe     F
            F
                    F     F Fe

Positions:
   0 Fe     1.551418    2.603099    2.677597    ( 0.0000,  0.0000,  0.0000)
   1 Fe     1.551418    2.774860   10.155423    ( 0.0000,  0.0000,  0.0000)
   2 Fe     6.278121    5.311002    2.635533    ( 0.0000,  0.0000,  0.0000)
   3 Fe     6.278121    0.131340   10.113358    ( 0.0000,  0.0000,  0.0000)
   4 Fe     1.657485    2.544113   14.390832    ( 0.0000,  0.0000,  0.0000)
   5 Fe     1.657485    2.835110    7.059751    ( 0.0000,  0.0000,  0.0000)
   6 Fe     6.384188    5.252016   14.460247    ( 0.0000,  0.0000,  0.0000)
   7 Fe     6.384188    0.183546    7.076956    ( 0.0000,  0.0000,  0.0000)
   8 Fe     3.135024    0.176327   12.271643    ( 0.0000,  0.0000,  0.0000)
   9 Fe     3.135024    5.220507    4.793817    ( 0.0000,  0.0000,  0.0000)
  10 Fe     7.861727    2.884230   12.229578    ( 0.0000,  0.0000,  0.0000)
  11 Fe     7.861727    2.568943    4.751753    ( 0.0000,  0.0000,  0.0000)
  12 Fe     3.153836    0.041949    7.705724    ( 0.0000,  0.0000,  0.0000)
  13 Fe     3.153836    5.355110    0.212525    ( 0.0000,  0.0000,  0.0000)
  14 Fe     7.880540    2.749852    7.663660    ( 0.0000,  0.0000,  0.0000)
  15 Fe     7.880540    2.703546    0.185834    ( 0.0000,  0.0000,  0.0000)
  16 O      2.923598    1.450588   13.814659    ( 0.0000,  0.0000,  0.0000)
  17 O      2.923598    3.943726    6.336834    ( 0.0000,  0.0000,  0.0000)
  18 O      7.650302    4.158491   13.772595    ( 0.0000,  0.0000,  0.0000)
  19 O      7.558046    1.293997    6.295590    ( 0.0000,  0.0000,  0.0000)
  20 F      0.036500    1.977014    3.648091    ( 0.0000,  0.0000,  0.0000)
  21 F      0.036500    3.388639   11.125917    ( 0.0000,  0.0000,  0.0000)
  22 F      4.670484    4.684364    3.670638    ( 0.0000,  0.0000,  0.0000)
  23 F      4.763203    0.756942   11.083852    ( 0.0000,  0.0000,  0.0000)
  24 F      0.244976    2.124270    8.659520    ( 0.0000,  0.0000,  0.0000)
  25 F      0.244976    3.241917    1.181694    ( 0.0000,  0.0000,  0.0000)
  26 F      4.930358    4.828127    8.753800    ( 0.0000,  0.0000,  0.0000)
  27 F      4.971679    0.590353    1.139630    ( 0.0000,  0.0000,  0.0000)
  28 F      1.664915    1.157759    1.234055    ( 0.0000,  0.0000,  0.0000)
  29 F      1.664915    4.221552    8.711881    ( 0.0000,  0.0000,  0.0000)
  30 F      6.391619    3.865662    1.178934    ( 0.0000,  0.0000,  0.0000)
  31 F      6.391619    1.531234    8.669816    ( 0.0000,  0.0000,  0.0000)
  32 F      1.715548    1.100581   11.043749    ( 0.0000,  0.0000,  0.0000)
  33 F      1.715548    4.279334    3.565923    ( 0.0000,  0.0000,  0.0000)
  34 F      6.442251    3.808484   10.926981    ( 0.0000,  0.0000,  0.0000)
  35 F      6.442251    1.627770    3.666880    ( 0.0000,  0.0000,  0.0000)
  36 F      1.786722    1.092510    6.320255    ( 0.0000,  0.0000,  0.0000)
  37 F      1.786722    4.288253   13.798081    ( 0.0000,  0.0000,  0.0000)
  38 F      6.421312    3.799864    6.279011    ( 0.0000,  0.0000,  0.0000)
  39 F      6.513426    1.636689   13.756016    ( 0.0000,  0.0000,  0.0000)
  40 F      2.774358    1.849515    8.623789    ( 0.0000,  0.0000,  0.0000)
  41 F      2.774358    3.516974    1.145964    ( 0.0000,  0.0000,  0.0000)
  42 F      7.501061    4.583465    8.682092    ( 0.0000,  0.0000,  0.0000)
  43 F      7.501061    0.865410    1.103899    ( 0.0000,  0.0000,  0.0000)
  44 F      2.865384    1.654989    3.683786    ( 0.0000,  0.0000,  0.0000)
  45 F      2.865384    3.738632   11.161611    ( 0.0000,  0.0000,  0.0000)
  46 F      7.592088    4.362892    3.641721    ( 0.0000,  0.0000,  0.0000)
  47 F      7.592088    1.135941   11.057226    ( 0.0000,  0.0000,  0.0000)
  48 F      4.638919    0.749288    6.284284    ( 0.0000,  0.0000,  0.0000)
  49 F      4.638919    4.665472   13.762110    ( 0.0000,  0.0000,  0.0000)
  50 F      9.365623    3.457191    6.242220    ( 0.0000,  0.0000,  0.0000)
  51 F      9.310717    2.013581   13.720534    ( 0.0000,  0.0000,  0.0000)

Unit cell:
           periodic     x           y           z      points  spacing
  1. axis:    yes    9.453407    0.056339   -0.084129    48     0.1969
  2. axis:    yes    0.000000    5.359467    0.000000    28     0.1914
  3. axis:    yes    0.000000    0.000000   14.955651    76     0.1968

  Lengths:   9.453949   5.359467  14.955651
  Angles:   90.000000  90.509872  89.658555

Effective grid spacing dv^(1/3) = 0.1950

                     log10-error:    total        iterations:
           time      wfs    density  energy       fermi  poisson
iter:   1  05:11:59  +1.49   +inf  -311.558360    3      21
iter:   2  05:12:29  +0.29   +inf  -313.122775    3
iter:   3  05:12:59  -0.29   +inf  -313.550177    2
iter:   4  05:13:35  -0.46  -1.13  -310.965265    3      18
iter:   5  05:14:13  -0.42  -1.15  -327.888833    3      31
iter:   6  05:14:51  -0.22  -1.11  -355.654380    32     36
iter:   7  05:15:30  -0.22  -1.12  -325.482074    3      35
iter:   8  05:16:08  -0.30  -1.25  -318.457627    4      33
iter:   9  05:16:47  -0.54  -1.27  -318.594263    3      33
iter:  10  05:17:24  -0.64  -1.25  -302.936991    4      29
iter:  11  05:18:02  -1.29  -1.40  -301.182642    3      27
iter:  12  05:18:38  -1.84  -1.42  -300.416820    3      20
iter:  13  05:19:15  -1.79  -1.45  -305.275346    4      28
iter:  14  05:19:53  -1.32  -1.36  -308.841774    3      32
iter:  15  05:20:31  -1.17  -1.33  -304.451816    3      30
iter:  16  05:21:12  -1.39  -1.40  -301.715886    3      22
iter:  17  05:22:02  -1.34  -1.45  -305.211693    3      28
iter:  18  05:22:44  -1.42  -1.41  -300.075812    4      27
iter:  19  05:23:32  -1.95  -1.49  -301.170507    4      21
iter:  20  05:24:21  -1.58  -1.47  -305.603963    3      30
iter:  21  05:25:09  -1.45  -1.39  -300.763033    4      29
iter:  22  05:25:46  -1.58  -1.50  -302.766347    4      27
iter:  23  05:26:31  -1.56  -1.48  -301.141888    4      26
iter:  24  05:27:21  -1.26  -1.56  -303.214648    3      25
iter:  25  05:28:09  -1.43  -1.46  -303.174150    3      27
iter:  26  05:28:47  -1.39  -1.48  -305.329438    3      30
iter:  27  05:29:31  -1.38  -1.47  -301.572580    4      29
iter:  28  05:30:14  -1.84  -1.55  -299.634773    3      25
iter:  29  05:30:51  -2.35  -1.64  -299.788011    3      12
iter:  30  05:31:26  -2.06  -1.64  -299.871080    3      17
iter:  31  05:32:03  -1.94  -1.64  -301.170644    4      23
iter:  32  05:32:40  -1.36  -1.61  -315.480926    4      32
iter:  33  05:33:17  -1.22  -1.34  -303.264608    4      32
iter:  34  05:33:54  -1.34  -1.57  -303.332738    3      29
iter:  35  05:34:30  -1.50  -1.56  -301.047553    3      25
iter:  36  05:35:06  -1.92  -1.64  -299.670076    3      20
iter:  37  05:35:42  -2.53  -1.73  -299.806957    3      18
iter:  38  05:36:19  -1.65  -1.73  -313.430088    4      31
iter:  39  05:36:55  -1.28  -1.37  -304.358222    3      32
iter:  40  05:37:31  -1.62  -1.55  -299.769857    4      27
iter:  41  05:38:07  -2.14  -1.75  -299.897080    3      18
iter:  42  05:38:42  -1.97  -1.77  -300.708382    2      20
iter:  43  05:39:24  -2.19  -1.70  -299.678171    3      18
iter:  44  05:40:06  -1.71  -1.79  -309.760104    3      30
iter:  45  05:40:42  -1.42  -1.43  -300.728544    4      31
iter:  46  05:41:20  -1.79  -1.74  -300.881900    3      25
iter:  47  05:41:55  -1.73  -1.73  -300.674926    3      23
iter:  48  05:42:29  -1.85  -1.74  -300.386036    3      13
iter:  49  05:43:05  -2.27  -1.78  -299.382066    3      22
iter:  50  05:43:42  -1.89  -1.90  -306.172618    3      29
iter:  51  05:44:19  -1.58  -1.51  -300.363147    4      30
iter:  52  05:44:56  -2.07  -1.79  -299.598357    3      21
iter:  53  05:45:31  -2.38  -1.90  -299.781789    3      19
iter:  54  05:46:06  -2.00  -1.87  -300.926996    3      22
iter:  55  05:46:41  -2.08  -1.78  -299.371123    3      23
iter:  56  05:47:17  -2.11  -1.96  -301.573150    3      26
iter:  57  05:47:53  -1.92  -1.71  -299.487562    3      27
iter:  58  05:48:28  -2.37  -1.97  -299.515232    3      15
iter:  59  05:49:09  -2.25  -1.98  -300.273802    3      20
iter:  60  05:49:45  -2.12  -1.91  -300.192568    3      25
iter:  61  05:50:22  -1.96  -2.00  -300.070369    3      25
iter:  62  05:50:58  -1.98  -1.90  -301.571094    3      27
iter:  63  05:51:35  -2.01  -1.75  -299.463566    4      27
[...]
iter: 184  07:02:03  -6.21  -4.08  -299.238743    2      3
iter: 185  07:02:42  -6.55  -4.14  -299.238692    2      2
iter: 186  07:03:20  -6.59  -4.15  -299.238708    2      4
iter: 187  07:03:53  -6.25  -4.14  -299.238779    2      3
iter: 188  07:04:25  -6.56  -4.15  -299.238661    2      2
iter: 189  07:04:58  -6.36  -4.23  -299.238556    2      4
iter: 190  07:05:30  -6.50  -4.06  -299.238676    2      2
iter: 191  07:06:02  -6.87  -4.29  -299.238741    2      2
iter: 192  07:06:35  -6.34  -4.48  -299.238807    2      3
iter: 193  07:07:08  -6.32  -4.02  -299.238813    2      3
iter: 194  07:07:41  -6.86  -4.17  -299.238892    2      2
iter: 195  07:08:15  -7.26  -4.32  -299.238776    2      2
iter: 196  07:08:47  -6.60  -4.53  -299.238682    2      3
iter: 197  07:09:20  -6.63  -4.27  -299.238667    2      2
iter: 198  07:09:52  -7.53  -4.53  -299.238679    2      2

Converged after 198 iterations.

Dipole moment: (-23.771930, -6.953240, 1.994151) |e|*Ang

Energy contributions relative to reference atoms: (reference = -648925.267931)

Kinetic:       +206.313582
Potential:     -240.146573
External:        +0.000000
XC:            -277.900577
Entropy (-ST):   -2.910645
Local:          +13.950211
Free energy:   -300.694002
Extrapolated:  -299.238679

Fermi level: 1.51668

 Band  Eigenvalues  Occupancy
    0    -22.40076    2.00000
    1    -22.29494    2.00000
    2    -22.28951    2.00000
    3    -22.20756    2.00000
    4    -22.20340    2.00000
    5    -22.06928    2.00000
    6    -22.04752    2.00000
    7    -21.99580    2.00000
    8    -21.96990    2.00000
    9    -21.91856    2.00000
   10    -21.76655    2.00000
   11    -21.74107    2.00000
   12    -21.68513    2.00000
   13    -21.66633    2.00000
   14    -21.59890    2.00000
   15    -21.54629    2.00000
   16    -21.50439    2.00000
   17    -21.47048    2.00000
   18    -21.44273    2.00000
   19    -21.43476    2.00000
   20    -21.40899    2.00000
   21    -21.35871    2.00000
   22    -21.34955    2.00000
   23    -21.32208    2.00000
   24    -21.29377    2.00000
   25    -21.27602    2.00000
   26    -21.22857    2.00000
   27    -21.17967    2.00000
   28    -21.17645    2.00000
   29    -21.16366    2.00000
   30    -21.15160    2.00000
   31    -21.12516    2.00000
   32    -17.30576    2.00000
   33    -17.09086    2.00000
   34    -17.08136    2.00000
   35    -16.97032    2.00000
   36     -5.50464    2.00000
   37     -5.38903    2.00000
   38     -5.33610    2.00000
   39     -5.33021    2.00000
   40     -5.24589    2.00000
   41     -5.16862    2.00000
   42     -5.10997    2.00000
   43     -5.01968    2.00000
   44     -4.91044    2.00000
   45     -4.85965    2.00000
   46     -4.74463    2.00000
   47     -4.71539    2.00000
   48     -4.63918    2.00000
   49     -4.61809    2.00000
   50     -4.59541    2.00000
   51     -4.53649    2.00000
   52     -4.50513    2.00000
   53     -4.47854    2.00000
   54     -4.42653    2.00000
   55     -4.42127    2.00000
   56     -4.41011    2.00000
   57     -4.39303    2.00000
   58     -4.37006    2.00000
   59     -4.33372    2.00000
[...]
  273     13.11232    0.00000
  274     13.15670    0.00000
  275     13.20180    0.00000
  276     13.21637    0.00000
  277     13.32789    0.00000
  278     13.35774    0.00000
  279     13.48628    0.00000
  280     13.64122    0.00000
  281     13.93954    0.00000
  282     13.97604    0.00000
  283     14.13354    0.00000
  284     14.24066    0.00000
  285     14.35968    0.00000
  286     14.45186    0.00000
  287     14.48984    0.00000