User:   murakami@tssm1.eng.shizuoka.ac.jp
Date:   Wed Mar 27 13:34:48 2019
Arch:   x86_64
Pid:    31289
Python: 3.6.5
gpaw:   /home/murakami/.local/lib/python3.6/site-packages/gpaw
_gpaw:  /home/murakami/.local/lib/python3.6/site-packages/
        _gpaw.cpython-36m-x86_64-linux-gnu.so
ase:    /home/murakami/.local/lib/python3.6/site-packages/ase (version 3.16.2)
numpy:  /home/murakami/.local/lib/python3.6/site-packages/numpy (version 1.15.2)
scipy:  /home/murakami/.local/lib/python3.6/site-packages/scipy (version 1.1.0)
units:  Angstrom and eV
cores:  1

Input parameters:
  kpts: {size: (1, 1, 1)}
  maxiter: 300
  xc: PBE

System changes: positions, numbers, cell, pbc, initial_charges, initial_magmoms

Initialize ...

Fe-setup:
  name: Iron
  id: 37abbd8d6c3c35915a9b583b742da910
  Z: 26
  valence: 8
  core: 18
  charge: 0.0
  file: /home/murakami/Public/gpaw-setups-0.9.20000/Fe.PBE.gz
  cutoffs: 1.06(comp), 2.06(filt), 2.67(core), lmax=2
  valence states:
                energy  radius
    4s(2.00)    -5.291   1.164
    4p(0.00)    -1.326   1.058
    3d(6.00)    -7.505   1.058
    *s          21.920   1.164
    *p          25.885   1.058
    *d          19.706   1.058

  Using partial waves for Fe as LCAO basis

O-setup:
  name: Oxygen
  id: 32ecd46bf208036f09c70b0ec9a88b78
  Z: 8
  valence: 6
  core: 2
  charge: 0.0
  file: /home/murakami/Public/gpaw-setups-0.9.20000/O.PBE.gz
  cutoffs: 0.67(comp), 1.17(filt), 0.83(core), lmax=2
  valence states:
                energy  radius
    2s(2.00)   -23.961   0.688
    2p(4.00)    -9.029   0.598
    *s           3.251   0.688
    *p          18.182   0.598
    *d           0.000   0.619

[...]

F-setup:
  name: Fluorine
  id: 9cd46ba2a61e170ad72278be75b55cc0
  Z: 9
  valence: 7
  core: 2
  charge: 0.0
  file: /home/murakami/Public/gpaw-setups-0.9.20000/F.PBE.gz
  cutoffs: 0.64(comp), 1.14(filt), 0.74(core), lmax=2
  valence states:
                energy  radius
    2s(2.00)   -29.898   0.635
    2p(5.00)   -11.110   0.635
    *s          -2.687   0.635
    *p          16.102   0.635
    *d           0.000   0.635

  Using partial waves for F as LCAO basis

Reference energy: -648925.267931

Spin-paired calculation

Occupation numbers:
  Fermi-Dirac: width=0.1000 eV

Convergence criteria:
  Maximum total energy change: 0.0005 eV / electron
  Maximum integral of absolute density change: 0.0001 electrons
  Maximum integral of absolute eigenstate change: 4e-08 eV^2
  Maximum number of iterations: 300

Symmetries present (total): 1

  ( 1  0  0)
  ( 0  1  0)
  ( 0  0  1)

1 k-point (Gamma)
1 k-point in the irreducible part of the Brillouin zone
       k-points in crystal coordinates                weights
   0:     0.00000000    0.00000000    0.00000000          1/1

Eigensolver
   Davidson(niter=1, smin=None, normalize=True)

Densities:
  Coarse grid: 48*28*76 grid
  Fine grid: 96*56*152 grid
  Total Charge: 0.000000

Density mixing:
  Method: separate
  Backend: pulay
  Linear mixing parameter: 0.05
  Mixing with 5 old densities
  Damping of long wave oscillations: 50

Hamiltonian:
  XC and Coulomb potentials evaluated on a 96*56*152 grid
  Using the PBE Exchange-Correlation functional
  Interpolation: tri-quintic (5. degree polynomial)
  Poisson solver: Jacobi solver with 4 multi-grid levels
    Coarsest grid: 12 x 7 x 19 points
    Stencil: 12*3+1=37 point O(h^6) finite-difference Laplacian
    Max iterations: 1000
    Tolerance: 2.000000e-10

Total number of cores used: 1

Number of atoms: 52
Number of atomic orbitals: 288
Number of bands in calculation: 288
Bands to converge: occupied states only
Number of valence electrons: 376

... initialized

Initializing position-dependent things.

Density initialized from atomic densities
Creating initial wave functions:
  288 bands from LCAO basis set

                           Fe
              F       F
             Fe              O
               O        F       F
                            Fe
         F       F        F
               Fe
            FFe    F   F   F
              F              F
         F     F       Fe
                        F   Fe
             Fe  O        F      F
               Fe Fe   Fe
            F      F       O
              F       F     Fe
                          Fe
         F   FeF        F
                         F
          F     F Fe
            F             F
                    F       Fe

Positions:
   0 Fe     1.542848    2.590518    2.677597    ( 0.0000,  0.0000,  0.0000)
   1 Fe     1.542848    2.753011   10.155423    ( 0.0000,  0.0000,  0.0000)
   2 Fe     6.243444    5.270251    2.635533    ( 0.0000,  0.0000,  0.0000)
   3 Fe     6.243444    0.073277   10.113358    ( 0.0000,  0.0000,  0.0000)
   4 Fe     1.648330    2.500100   14.537576    ( 0.0000,  0.0000,  0.0000)
   5 Fe     1.648330    2.816465    7.059751    ( 0.0000,  0.0000,  0.0000)
   6 Fe     6.428920    5.195933   14.494796    ( 0.0000,  0.0000,  0.0000)
   7 Fe     6.348925    0.136731    7.017686    ( 0.0000,  0.0000,  0.0000)
   8 Fe     3.117708    0.142400   12.271643    ( 0.0000,  0.0000,  0.0000)
   9 Fe     3.117708    5.176354    4.912221    ( 0.0000,  0.0000,  0.0000)
  10 Fe     7.818303    2.804340   12.229578    ( 0.0000,  0.0000,  0.0000)
  11 Fe     7.818303    2.516114    4.751753    ( 0.0000,  0.0000,  0.0000)
  12 Fe     3.149173    0.013458    7.794417    ( 0.0000,  0.0000,  0.0000)
  13 Fe     3.136416    5.286513    0.227899    ( 0.0000,  0.0000,  0.0000)
  14 Fe     7.837011    2.693302    7.663660    ( 0.0000,  0.0000,  0.0000)
  15 Fe     7.837011    2.656379    0.092676    ( 0.0000,  0.0000,  0.0000)
  16 O      2.907450    1.412377   13.814659    ( 0.0000,  0.0000,  0.0000)
  17 O      2.949088    3.918417    6.336461    ( 0.0000,  0.0000,  0.0000)
  18 O      7.608045    4.095745   13.772595    ( 0.0000,  0.0000,  0.0000)
  19 O      7.608045    1.204355    6.382140    ( 0.0000,  0.0000,  0.0000)
  20 F      0.036298    1.972275    3.648091    ( 0.0000,  0.0000,  0.0000)
  21 F      0.036298    3.368881   11.125917    ( 0.0000,  0.0000,  0.0000)
  22 F      4.736893    4.652055    3.568727    ( 0.0000,  0.0000,  0.0000)
  23 F      4.736893    0.689148   11.083852    ( 0.0000,  0.0000,  0.0000)
  24 F      0.243622    2.108275    8.659520    ( 0.0000,  0.0000,  0.0000)
  25 F      0.243622    3.238990    1.181694    ( 0.0000,  0.0000,  0.0000)
  26 F      4.944218    4.788009    8.617455    ( 0.0000,  0.0000,  0.0000)
  27 F      4.867824    0.559256    1.140313    ( 0.0000,  0.0000,  0.0000)
  28 F      1.655719    1.146289    1.234055    ( 0.0000,  0.0000,  0.0000)
  29 F      1.655719    4.200815    8.711881    ( 0.0000,  0.0000,  0.0000)
  30 F      6.356314    3.826023    1.191991    ( 0.0000,  0.0000,  0.0000)
  31 F      6.356314    1.521081    8.669816    ( 0.0000,  0.0000,  0.0000)
  32 F      1.706072    1.076651   11.043749    ( 0.0000,  0.0000,  0.0000)
  33 F      1.706072    4.264672    3.565923    ( 0.0000,  0.0000,  0.0000)
  34 F      6.406667    3.756240   11.117920    ( 0.0000,  0.0000,  0.0000)
  35 F      6.406667    1.584938    3.523859    ( 0.0000,  0.0000,  0.0000)
  36 F      1.776853    1.090768    6.320255    ( 0.0000,  0.0000,  0.0000)
  37 F      1.776853    4.260485   13.798081    ( 0.0000,  0.0000,  0.0000)
  38 F      6.477449    3.753743    6.278191    ( 0.0000,  0.0000,  0.0000)
  39 F      6.477449    1.573779   13.756016    ( 0.0000,  0.0000,  0.0000)
  40 F      2.759033    1.848309    8.623789    ( 0.0000,  0.0000,  0.0000)
  41 F      2.759033    3.499062    1.087098    ( 0.0000,  0.0000,  0.0000)
  42 F      7.459629    4.528034    8.588829    ( 0.0000,  0.0000,  0.0000)
  43 F      7.459629    0.819255    1.103899    ( 0.0000,  0.0000,  0.0000)
  44 F      2.849557    1.633315    3.683786    ( 0.0000,  0.0000,  0.0000)
  45 F      2.849557    3.707690   11.161611    ( 0.0000,  0.0000,  0.0000)
  46 F      7.550153    4.313049    3.641721    ( 0.0000,  0.0000,  0.0000)
  47 F      7.550153    1.027957   11.119547    ( 0.0000,  0.0000,  0.0000)
  48 F      4.613296    0.713802    6.284284    ( 0.0000,  0.0000,  0.0000)
  49 F      4.613296    4.620719   13.762110    ( 0.0000,  0.0000,  0.0000)
  50 F      9.313892    3.393536    6.242220    ( 0.0000,  0.0000,  0.0000)
  51 F      9.313892    1.940985   13.720045    ( 0.0000,  0.0000,  0.0000)

Unit cell:
           periodic     x           y           z      points  spacing
  1. axis:    yes    9.401191    0.000000   -0.084129    48     0.1959
  2. axis:    yes    0.000000    5.359467    0.000000    28     0.1914
  3. axis:    yes    0.000000   -0.018535   14.955651    76     0.1968

  Lengths:   9.401567   5.359467  14.955662
  Angles:   90.071008  90.512712  90.000000

Effective grid spacing dv^(1/3) = 0.1947

                     log10-error:    total        iterations:
           time      wfs    density  energy       fermi  poisson
iter:   1  13:36:07  +1.49   +inf  -311.627392    3      20
iter:   2  13:36:45  +0.30   +inf  -313.220561    3
iter:   3  13:37:24  -0.28   +inf  -313.656769    2
iter:   4  13:38:06  -0.45  -1.13  -311.234982    3      18
iter:   5  13:38:43  -0.43  -1.15  -325.654329    4      30
iter:   6  13:39:22  -0.20  -1.12  -365.533690    34     37
iter:   7  13:40:01  -0.23  -1.13  -321.550000    3      36
iter:   8  13:40:38  -0.36  -1.25  -304.016620    4      30
iter:   9  13:41:15  -0.67  -1.39  -310.610917    37     29
iter:  10  13:41:53  -0.88  -1.30  -302.637248    4      29
iter:  11  13:42:30  -1.44  -1.39  -301.954263    3      24
iter:  12  13:43:08  -1.25  -1.42  -323.129816    37     33
iter:  13  13:43:46  -1.09  -1.22  -303.265233    4      33
iter:  14  13:44:22  -1.49  -1.40  -301.504294    3      22
iter:  15  13:45:06  -1.80  -1.44  -302.759283    4      25
iter:  16  13:45:56  -1.37  -1.44  -306.284241    3      30
iter:  17  13:46:48  -1.42  -1.37  -301.364823    3      29
iter:  18  13:47:38  -1.36  -1.48  -325.515746    36     33
iter:  19  13:48:30  -0.99  -1.25  -303.263389    4      34
iter:  20  13:49:13  -1.38  -1.45  -300.822131    3      25
iter:  21  13:50:00  -1.95  -1.51  -300.689715    3      23
iter:  22  13:50:37  -2.14  -1.52  -300.179150    3      19
iter:  23  13:51:13  -2.01  -1.56  -300.626915    3      19
iter:  24  13:51:51  -1.53  -1.54  -315.731761    3      32
iter:  25  13:52:29  -1.13  -1.36  -302.713539    4      32
iter:  26  13:53:08  -1.25  -1.54  -308.609321    3      31
iter:  27  13:53:55  -1.29  -1.41  -302.013776    4      30
iter:  28  13:54:45  -1.54  -1.57  -301.119744    3      22
iter:  29  13:55:29  -1.85  -1.60  -299.743614    4      16
iter:  30  13:56:15  -2.07  -1.67  -302.792168    4      27
iter:  31  13:57:00  -1.65  -1.55  -302.454824    3      30
iter:  32  13:57:54  -1.69  -1.56  -301.632317    2      28
iter:  33  13:58:44  -1.84  -1.60  -300.644785    3      27
iter:  34  13:59:32  -1.68  -1.67  -302.071441    4      25
iter:  35  14:00:21  -1.58  -1.66  -299.798668    4      21
iter:  36  14:01:10  -1.84  -1.73  -303.416346    4      27
iter:  37  14:02:06  -1.69  -1.57  -300.426756    4      28
iter:  38  14:03:01  -2.04  -1.72  -300.208586    3      24
iter:  39  14:03:56  -1.97  -1.76  -301.953522    3      24
iter:  40  14:04:32  -1.74  -1.71  -301.442794    3      27
iter:  41  14:05:09  -1.62  -1.76  -302.864278    3      28
iter:  42  14:05:45  -1.52  -1.66  -303.962153    3      27
iter:  43  14:06:21  -1.63  -1.61  -300.620563    4      28
iter:  44  14:06:57  -2.06  -1.80  -299.884176    3      24
iter:  45  14:07:32  -2.43  -1.89  -300.389775    3      22
iter:  46  14:08:10  -1.99  -1.84  -301.400462    3      26
iter:  47  14:08:46  -1.95  -1.77  -299.829546    4      23
iter:  48  14:09:22  -2.06  -1.92  -302.578762    3      26
iter:  49  14:09:58  -1.82  -1.67  -300.229174    3      27
iter:  50  14:10:32  -2.25  -1.88  -299.750487    3      17
iter:  51  14:11:07  -2.48  -1.96  -300.287357    3      20
iter:  52  14:11:43  -2.30  -1.88  -300.171955    3      24
iter:  53  14:12:20  -2.28  -1.90  -300.454380    3      24
iter:  54  14:12:57  -1.92  -1.85  -304.390665    3      29
iter:  55  14:13:41  -1.77  -1.61  -299.923440    4      27
iter:  56  14:14:23  -2.48  -1.98  -299.706515    2      15
iter:  57  14:15:02  -2.82  -2.03  -299.949820    3      20
iter:  58  14:15:37  -2.55  -1.96  -300.048575    3      23
iter:  59  14:16:15  -2.45  -1.95  -300.482176    3      23
iter:  60  14:16:51  -2.04  -1.88  -303.375567    3      29
iter:  61  14:17:27  -1.86  -1.65  -299.842266    3      26
iter:  62  14:18:02  -2.68  -2.02  -299.696151    3      15
iter:  63  14:18:35  -3.11  -2.08  -299.717836    3      8
[...]
iter: 155  15:13:42  -5.65  -3.68  -299.611097    2      4
iter: 156  15:14:17  -5.34  -3.58  -299.611327    2      4
iter: 157  15:14:50  -5.22  -3.65  -299.611378    2      6
iter: 158  15:15:25  -5.32  -3.57  -299.612387    2      6
iter: 159  15:16:05  -5.48  -3.60  -299.611628    2      4
iter: 160  15:16:47  -5.79  -4.05  -299.611005    2      4
iter: 161  15:17:25  -5.97  -3.97  -299.611036    2      4
iter: 162  15:18:07  -6.32  -4.03  -299.611069    2      3
iter: 163  15:18:59  -6.39  -4.15  -299.611075    2      3
iter: 164  15:19:49  -6.44  -4.20  -299.611099    2      2
iter: 165  15:20:36  -6.04  -4.37  -299.611590    2      4
iter: 166  15:21:18  -6.00  -3.84  -299.611465    2      3
iter: 167  15:21:52  -6.74  -4.21  -299.611335    2      2
iter: 168  15:22:32  -7.23  -4.38  -299.611264    2      2
iter: 169  15:23:16  -7.42  -4.54  -299.611236    2      2

Converged after 169 iterations.

Dipole moment: (-28.158892, -4.902578, 5.217294) |e|*Ang

Energy contributions relative to reference atoms: (reference = -648925.267931)

Kinetic:       +213.434753
Potential:     -245.415146
External:        +0.000000
XC:            -280.088123
Entropy (-ST):   -2.824811
Local:          +13.869687
Free energy:   -301.023642
Extrapolated:  -299.611236

Fermi level: 1.58320

 Band  Eigenvalues  Occupancy
    0    -22.33093    2.00000
    1    -22.28828    2.00000
    2    -22.19295    2.00000
    3    -22.18589    2.00000
    4    -22.11192    2.00000
    5    -22.07200    2.00000
    6    -22.03020    2.00000
    7    -21.94918    2.00000
    8    -21.92146    2.00000
    9    -21.91219    2.00000
   10    -21.89378    2.00000
   11    -21.78169    2.00000
   12    -21.75764    2.00000
   13    -21.70312    2.00000
   14    -21.68436    2.00000
   15    -21.59601    2.00000
   16    -21.57763    2.00000
   17    -21.54627    2.00000
   18    -21.46964    2.00000
   19    -21.44018    2.00000
   20    -21.40500    2.00000
   21    -21.39303    2.00000
   22    -21.34066    2.00000
   23    -21.32367    2.00000
   24    -21.29310    2.00000
   25    -21.26669    2.00000
   26    -21.17614    2.00000
   27    -21.17258    2.00000
   28    -21.13807    2.00000
   29    -21.13393    2.00000
   30    -21.08901    2.00000
   31    -20.82172    2.00000
   32    -17.32754    2.00000
   33    -17.06467    2.00000
   34    -17.00009    2.00000
   35    -16.88729    2.00000
   36     -5.48171    2.00000
   37     -5.38694    2.00000
   38     -5.35983    2.00000
   39     -5.25411    2.00000
   40     -5.20603    2.00000
   41     -5.17304    2.00000
   42     -5.11101    2.00000
   43     -5.10633    2.00000
   44     -4.92169    2.00000
   45     -4.87852    2.00000
   46     -4.76946    2.00000
   47     -4.64085    2.00000
   48     -4.60160    2.00000
   49     -4.58763    2.00000
   50     -4.55350    2.00000
   51     -4.54720    2.00000
   52     -4.50490    2.00000
   53     -4.48668    2.00000
   54     -4.47716    2.00000
   55     -4.42495    2.00000
   56     -4.41084    2.00000
   57     -4.40292    2.00000
   58     -4.38238    2.00000
   59     -4.33046    2.00000
[...]
  273     13.15813    0.00000
  274     13.24365    0.00000
  275     13.28409    0.00000
  276     13.33109    0.00000
  277     13.36899    0.00000
  278     13.46903    0.00000
  279     13.51291    0.00000
  280     13.68843    0.00000
  281     14.01784    0.00000
  282     14.07426    0.00000
  283     14.22133    0.00000
  284     14.35600    0.00000
  285     14.42171    0.00000
  286     14.47673    0.00000
  287     14.57570    0.00000