User:   murakami@tssm1.eng.shizuoka.ac.jp
Date:   Fri Mar 29 08:59:31 2019
Arch:   x86_64
Pid:    31289
Python: 3.6.5
gpaw:   /home/murakami/.local/lib/python3.6/site-packages/gpaw
_gpaw:  /home/murakami/.local/lib/python3.6/site-packages/
        _gpaw.cpython-36m-x86_64-linux-gnu.so
ase:    /home/murakami/.local/lib/python3.6/site-packages/ase (version 3.16.2)
numpy:  /home/murakami/.local/lib/python3.6/site-packages/numpy (version 1.15.2)
scipy:  /home/murakami/.local/lib/python3.6/site-packages/scipy (version 1.1.0)
units:  Angstrom and eV
cores:  1

Input parameters:
  kpts: {size: (1, 1, 1)}
  maxiter: 300
  xc: PBE

System changes: positions, numbers, cell, pbc, initial_charges, initial_magmoms

Initialize ...

Fe-setup:
  name: Iron
  id: 37abbd8d6c3c35915a9b583b742da910
  Z: 26
  valence: 8
  core: 18
  charge: 0.0
  file: /home/murakami/Public/gpaw-setups-0.9.20000/Fe.PBE.gz
  cutoffs: 1.06(comp), 2.06(filt), 2.67(core), lmax=2
  valence states:
                energy  radius
    4s(2.00)    -5.291   1.164
    4p(0.00)    -1.326   1.058
    3d(6.00)    -7.505   1.058
    *s          21.920   1.164
    *p          25.885   1.058
    *d          19.706   1.058

  Using partial waves for Fe as LCAO basis

O-setup:
  name: Oxygen
  id: 32ecd46bf208036f09c70b0ec9a88b78
  Z: 8
  valence: 6
  core: 2
  charge: 0.0
  file: /home/murakami/Public/gpaw-setups-0.9.20000/O.PBE.gz
  cutoffs: 0.67(comp), 1.17(filt), 0.83(core), lmax=2
  valence states:
                energy  radius
    2s(2.00)   -23.961   0.688
    2p(4.00)    -9.029   0.598
    *s           3.251   0.688
    *p          18.182   0.598
    *d           0.000   0.619

[...]

F-setup:
  name: Fluorine
  id: 9cd46ba2a61e170ad72278be75b55cc0
  Z: 9
  valence: 7
  core: 2
  charge: 0.0
  file: /home/murakami/Public/gpaw-setups-0.9.20000/F.PBE.gz
  cutoffs: 0.64(comp), 1.14(filt), 0.74(core), lmax=2
  valence states:
                energy  radius
    2s(2.00)   -29.898   0.635
    2p(5.00)   -11.110   0.635
    *s          -2.687   0.635
    *p          16.102   0.635
    *d           0.000   0.635

  Using partial waves for F as LCAO basis

Reference energy: -648925.267931

Spin-paired calculation

Occupation numbers:
  Fermi-Dirac: width=0.1000 eV

Convergence criteria:
  Maximum total energy change: 0.0005 eV / electron
  Maximum integral of absolute density change: 0.0001 electrons
  Maximum integral of absolute eigenstate change: 4e-08 eV^2
  Maximum number of iterations: 300

Symmetries present (total): 1

  ( 1  0  0)
  ( 0  1  0)
  ( 0  0  1)

1 k-point (Gamma)
1 k-point in the irreducible part of the Brillouin zone
       k-points in crystal coordinates                weights
   0:     0.00000000    0.00000000    0.00000000          1/1

Eigensolver
   Davidson(niter=1, smin=None, normalize=True)

Densities:
  Coarse grid: 48*28*76 grid
  Fine grid: 96*56*152 grid
  Total Charge: 0.000000

Density mixing:
  Method: separate
  Backend: pulay
  Linear mixing parameter: 0.05
  Mixing with 5 old densities
  Damping of long wave oscillations: 50

Hamiltonian:
  XC and Coulomb potentials evaluated on a 96*56*152 grid
  Using the PBE Exchange-Correlation functional
  Interpolation: tri-quintic (5. degree polynomial)
  Poisson solver: Jacobi solver with 4 multi-grid levels
    Coarsest grid: 12 x 7 x 19 points
    Stencil: 12*3+1=37 point O(h^6) finite-difference Laplacian
    Max iterations: 1000
    Tolerance: 2.000000e-10

Total number of cores used: 1

Number of atoms: 52
Number of atomic orbitals: 288
Number of bands in calculation: 288
Bands to converge: occupied states only
Number of valence electrons: 376

... initialized

Initializing position-dependent things.

Density initialized from atomic densities
Creating initial wave functions:
  288 bands from LCAO basis set

                          Fe
              F       F
             Fe              O
               O        F       F
                            Fe
          F      F       F
               Fe
            FFe    F       F
              F        F     F
         F     F       Fe
                        F   Fe
             Fe  O        F     F
               Fe Fe
            F      F   Fe  O
              F       F     Fe
                          Fe
         F   FeF        F
                         F
          F     F Fe
            F
                    F     F Fe

Positions:
   0 Fe     1.542848    2.588297    2.680759    ( 0.0000,  0.0000,  0.0000)
   1 Fe     1.542848    2.699212   10.158584    ( 0.0000,  0.0000,  0.0000)
   2 Fe     6.243444    5.268030    2.648326    ( 0.0000,  0.0000,  0.0000)
   3 Fe     6.243444    0.064640   10.244705    ( 0.0000,  0.0000,  0.0000)
   4 Fe     1.648330    2.504189   14.540954    ( 0.0000,  0.0000,  0.0000)
   5 Fe     1.648330    2.822545    7.063129    ( 0.0000,  0.0000,  0.0000)
   6 Fe     6.348925    5.183923   14.508522    ( 0.0000,  0.0000,  0.0000)
   7 Fe     6.348925    0.130893    7.030696    ( 0.0000,  0.0000,  0.0000)
   8 Fe     3.117708    0.132249   12.278031    ( 0.0000,  0.0000,  0.0000)
   9 Fe     3.117708    5.179081    4.800206    ( 0.0000,  0.0000,  0.0000)
  10 Fe     7.818303    2.811983   12.245599    ( 0.0000,  0.0000,  0.0000)
  11 Fe     7.818303    2.559379    4.767773    ( 0.0000,  0.0000,  0.0000)
  12 Fe     3.136416    0.007185    7.712151    ( 0.0000,  0.0000,  0.0000)
  13 Fe     3.136416    5.335786    0.234326    ( 0.0000,  0.0000,  0.0000)
  14 Fe     7.837011    2.686919    7.679719    ( 0.0000,  0.0000,  0.0000)
  15 Fe     7.837011    2.656052    0.201893    ( 0.0000,  0.0000,  0.0000)
  16 O      2.907450    1.407783   13.820617    ( 0.0000,  0.0000,  0.0000)
  17 O      2.837627    3.913166    6.343273    ( 0.0000,  0.0000,  0.0000)
  18 O      7.608045    4.084322   13.788184    ( 0.0000,  0.0000,  0.0000)
  19 O      7.608045    1.233432    6.310359    ( 0.0000,  0.0000,  0.0000)
  20 F      0.036298    1.969264    3.648166    ( 0.0000,  0.0000,  0.0000)
  21 F      0.075238    3.359699   11.125722    ( 0.0000,  0.0000,  0.0000)
  22 F      4.736893    4.648997    3.615733    ( 0.0000,  0.0000,  0.0000)
  23 F      4.736893    0.680173   10.993161    ( 0.0000,  0.0000,  0.0000)
  24 F      0.243622    2.101127    8.660019    ( 0.0000,  0.0000,  0.0000)
  25 F      0.205548    3.238013    1.182456    ( 0.0000,  0.0000,  0.0000)
  26 F      4.944218    4.766792    8.627586    ( 0.0000,  0.0000,  0.0000)
  27 F      4.944218    0.558279    1.149761    ( 0.0000,  0.0000,  0.0000)
  28 F      1.655719    1.119748    1.237448    ( 0.0000,  0.0000,  0.0000)
  29 F      1.655719    4.193542    8.749522    ( 0.0000,  0.0000,  0.0000)
  30 F      6.356314    3.824992    1.205015    ( 0.0000,  0.0000,  0.0000)
  31 F      6.356314    1.513879    8.682841    ( 0.0000,  0.0000,  0.0000)
  32 F      1.690663    1.067524   11.047351    ( 0.0000,  0.0000,  0.0000)
  33 F      1.706072    4.261716    3.569419    ( 0.0000,  0.0000,  0.0000)
  34 F      6.406667    3.747257   11.014812    ( 0.0000,  0.0000,  0.0000)
  35 F      6.406667    1.581983    3.536987    ( 0.0000,  0.0000,  0.0000)
  36 F      1.776853    1.083519    6.323896    ( 0.0000,  0.0000,  0.0000)
  37 F      1.776853    4.249084   13.801722    ( 0.0000,  0.0000,  0.0000)
  38 F      6.477449    3.755379    6.291464    ( 0.0000,  0.0000,  0.0000)
  39 F      6.477449    1.569351   13.769289    ( 0.0000,  0.0000,  0.0000)
  40 F      2.763856    1.841172    8.629409    ( 0.0000,  0.0000,  0.0000)
  41 F      2.759033    3.498022    1.151617    ( 0.0000,  0.0000,  0.0000)
  42 F      7.459629    4.520905    8.597010    ( 0.0000,  0.0000,  0.0000)
  43 F      7.459629    0.818289    1.119185    ( 0.0000,  0.0000,  0.0000)
  44 F      2.849557    1.630254    3.689625    ( 0.0000,  0.0000,  0.0000)
  45 F      2.823892    3.705313   11.159446    ( 0.0000,  0.0000,  0.0000)
  46 F      7.605714    4.309987    3.656809    ( 0.0000,  0.0000,  0.0000)
  47 F      7.550153    1.018724   11.135018    ( 0.0000,  0.0000,  0.0000)
  48 F      4.613296    0.708582    6.293737    ( 0.0000,  0.0000,  0.0000)
  49 F      4.613296    4.609326   13.771563    ( 0.0000,  0.0000,  0.0000)
  50 F      9.277509    3.388030    6.399761    ( 0.0000,  0.0000,  0.0000)
  51 F      9.313892    1.929593   13.739130    ( 0.0000,  0.0000,  0.0000)

Unit cell:
           periodic     x           y           z      points  spacing
  1. axis:    yes    9.401191    0.000000   -0.064865    48     0.1959
  2. axis:    yes    0.000000    5.359467    0.000000    28     0.1914
  3. axis:    yes    0.000000   -0.030878   14.955651    76     0.1968

  Lengths:   9.401415   5.359467  14.955683
  Angles:   90.118295  90.395314  90.000000

Effective grid spacing dv^(1/3) = 0.1947

                     log10-error:    total        iterations:
           time      wfs    density  energy       fermi  poisson
iter:   1  09:00:37  +1.49   +inf  -311.328623    3      18
iter:   2  09:01:13  +0.30   +inf  -312.922878    3
iter:   3  09:01:50  -0.28   +inf  -313.359298    2
iter:   4  09:02:31  -0.44  -1.13  -311.649865    3      21
iter:   5  09:03:08  -0.49  -1.14  -321.248115    4      29
iter:   6  09:03:46  -0.13  -1.13  -379.421735    4      37
iter:   7  09:04:23  -0.26  -1.10  -319.730398    35     36
iter:   8  09:04:59  -0.37  -1.26  -305.976027    4      29
iter:   9  09:05:37  -0.64  -1.35  -328.007934    34     34
iter:  10  09:06:15  -0.79  -1.20  -302.088382    4      32
iter:  11  09:06:50  -1.37  -1.40  -300.365251    3      19
iter:  12  09:07:27  -1.70  -1.44  -304.912159    3      28
iter:  13  09:08:05  -1.38  -1.36  -301.877453    3      30
iter:  14  09:08:42  -1.55  -1.42  -302.277902    4      26
iter:  15  09:09:17  -1.40  -1.43  -306.857262    3      24
iter:  16  09:09:54  -1.35  -1.37  -301.065727    3      29
iter:  17  09:10:29  -1.52  -1.48  -301.486757    3      24
iter:  18  09:11:05  -1.46  -1.47  -301.144275    4      27
iter:  19  09:11:41  -1.51  -1.51  -301.432844    3      24
iter:  20  09:12:17  -1.71  -1.49  -300.339150    3      26
iter:  21  09:12:52  -1.85  -1.53  -300.982336    4      25
iter:  22  09:13:31  -1.69  -1.53  -301.738411    2      28
iter:  23  09:14:07  -1.75  -1.49  -300.227975    3      27
iter:  24  09:14:51  -1.87  -1.56  -300.149382    3      20
iter:  25  09:15:36  -2.01  -1.58  -300.866515    3      23
iter:  26  09:16:18  -1.68  -1.57  -301.669189    3      29
iter:  27  09:16:54  -1.79  -1.52  -300.377849    2      27
iter:  28  09:17:30  -1.90  -1.59  -300.008408    3      23
iter:  29  09:18:05  -1.94  -1.64  -300.447289    3      22
iter:  30  09:18:40  -2.02  -1.61  -299.496669    3      20
iter:  31  09:19:16  -2.13  -1.66  -301.987217    4      27
iter:  32  09:19:52  -1.79  -1.56  -299.943844    3      27
iter:  33  09:20:28  -2.12  -1.65  -300.477341    3      25
iter:  34  09:21:05  -1.95  -1.63  -300.599569    3      25
iter:  35  09:21:39  -1.80  -1.64  -300.885608    3      17
iter:  36  09:22:16  -1.73  -1.68  -300.705867    3      22
iter:  37  09:22:54  -1.92  -1.66  -300.570438    3      25
iter:  38  09:23:30  -1.80  -1.69  -302.394072    3      28
iter:  39  09:24:06  -1.81  -1.61  -299.965878    3      26
iter:  40  09:24:41  -2.16  -1.74  -299.558031    3      21
iter:  41  09:25:16  -2.59  -1.78  -299.620978    3      22
iter:  42  09:25:51  -1.98  -1.80  -300.482714    3      24
iter:  43  09:26:27  -1.95  -1.72  -301.235095    3      23
iter:  44  09:27:02  -1.88  -1.72  -300.428544    3      26
iter:  45  09:27:41  -2.13  -1.73  -300.052233    3      25
iter:  46  09:28:17  -2.18  -1.78  -299.724868    3      25
iter:  47  09:29:01  -2.32  -1.81  -299.684744    3      24
iter:  48  09:29:40  -2.35  -1.84  -299.487479    2      21
iter:  49  09:30:14  -2.92  -1.87  -299.359212    3      17
iter:  50  09:30:52  -2.80  -1.90  -299.643908    3      21
iter:  51  09:31:27  -2.60  -1.86  -299.492303    2      23
iter:  52  09:32:03  -2.59  -1.89  -299.869487    3      22
iter:  53  09:32:39  -2.07  -1.84  -301.363518    3      27
iter:  54  09:33:17  -1.90  -1.71  -300.216170    3      25
iter:  55  09:33:57  -2.00  -1.87  -299.776622    3      22
iter:  56  09:34:32  -2.21  -1.87  -299.879387    3      17
iter:  57  09:35:13  -2.35  -1.89  -299.698422    3      23
iter:  58  09:35:54  -2.70  -1.91  -299.393635    3      21
iter:  59  09:36:29  -2.27  -1.99  -301.026368    3      26
iter:  60  09:37:06  -2.12  -1.75  -299.606901    3      26
iter:  61  09:37:40  -2.59  -1.97  -299.440729    3      15
iter:  62  09:38:15  -2.64  -2.00  -299.734535    3      19
iter:  63  09:38:51  -2.48  -1.93  -299.512245    3      21
[...]
iter: 177  10:46:34  -5.10  -3.30  -299.335348    2      7
iter: 178  10:47:06  -6.15  -3.89  -299.335137    2      3
iter: 179  10:47:40  -6.15  -4.05  -299.335282    2      3
iter: 180  10:48:16  -6.08  -4.03  -299.335134    2      3
iter: 181  10:48:51  -6.20  -3.90  -299.335283    2      3
iter: 182  10:49:24  -7.03  -4.07  -299.335223    2      2
iter: 183  10:49:59  -7.04  -4.11  -299.335359    2      2
iter: 184  10:50:31  -6.25  -4.13  -299.334999    2      3
iter: 185  10:51:04  -6.19  -3.97  -299.335282    2      3
iter: 186  10:51:37  -6.74  -4.08  -299.335162    2      2
iter: 187  10:52:09  -7.16  -4.17  -299.335250    2      2
iter: 188  10:52:42  -6.98  -4.20  -299.335073    2      2
iter: 189  10:53:16  -6.81  -4.18  -299.335330    2      2
iter: 190  10:53:50  -7.03  -4.14  -299.335261    2      2
iter: 191  10:54:23  -7.81  -4.23  -299.335149    2      1

Converged after 191 iterations.

Dipole moment: (-28.380017, -6.602935, 2.462717) |e|*Ang

Energy contributions relative to reference atoms: (reference = -648925.267931)

Kinetic:       +216.935231
Potential:     -248.400925
External:        +0.000000
XC:            -280.418239
Entropy (-ST):   -2.798350
Local:          +13.947959
Free energy:   -300.734324
Extrapolated:  -299.335149

Fermi level: 1.60987

 Band  Eigenvalues  Occupancy
    0    -22.34537    2.00000
    1    -22.21309    2.00000
    2    -22.09825    2.00000
    3    -22.08583    2.00000
    4    -22.04748    2.00000
    5    -22.03759    2.00000
    6    -21.97677    2.00000
    7    -21.94742    2.00000
    8    -21.92787    2.00000
    9    -21.90026    2.00000
   10    -21.86529    2.00000
   11    -21.83415    2.00000
   12    -21.75359    2.00000
   13    -21.65505    2.00000
   14    -21.61153    2.00000
   15    -21.60340    2.00000
   16    -21.55597    2.00000
   17    -21.52951    2.00000
   18    -21.50772    2.00000
   19    -21.49466    2.00000
   20    -21.46473    2.00000
   21    -21.46114    2.00000
   22    -21.43324    2.00000
   23    -21.36898    2.00000
   24    -21.34883    2.00000
   25    -21.31590    2.00000
   26    -21.31063    2.00000
   27    -21.23816    2.00000
   28    -21.18334    2.00000
   29    -21.09528    2.00000
   30    -21.06302    2.00000
   31    -21.05686    2.00000
   32    -17.15320    2.00000
   33    -16.94615    2.00000
   34    -16.93868    2.00000
   35    -16.84513    2.00000
   36     -5.38643    2.00000
   37     -5.35639    2.00000
   38     -5.27604    2.00000
   39     -5.19410    2.00000
   40     -5.17815    2.00000
   41     -5.14079    2.00000
   42     -5.10744    2.00000
   43     -5.06334    2.00000
   44     -4.87115    2.00000
   45     -4.83482    2.00000
   46     -4.77144    2.00000
   47     -4.74460    2.00000
   48     -4.60298    2.00000
   49     -4.59998    2.00000
   50     -4.56046    2.00000
   51     -4.52602    2.00000
   52     -4.49864    2.00000
   53     -4.47664    2.00000
   54     -4.44765    2.00000
   55     -4.43397    2.00000
   56     -4.42980    2.00000
   57     -4.40028    2.00000
   58     -4.33256    2.00000
   59     -4.32611    2.00000
[...]
  273     13.14296    0.00000
  274     13.27681    0.00000
  275     13.30724    0.00000
  276     13.36899    0.00000
  277     13.37564    0.00000
  278     13.44640    0.00000
  279     13.51656    0.00000
  280     13.68335    0.00000
  281     14.06503    0.00000
  282     14.09874    0.00000
  283     14.23963    0.00000
  284     14.38634    0.00000
  285     14.45316    0.00000
  286     14.48061    0.00000
  287     14.52381    0.00000