User:   murakami@tssm1.eng.shizuoka.ac.jp
Date:   Wed Mar 27 15:23:16 2019
Arch:   x86_64
Pid:    31289
Python: 3.6.5
gpaw:   /home/murakami/.local/lib/python3.6/site-packages/gpaw
_gpaw:  /home/murakami/.local/lib/python3.6/site-packages/
        _gpaw.cpython-36m-x86_64-linux-gnu.so
ase:    /home/murakami/.local/lib/python3.6/site-packages/ase (version 3.16.2)
numpy:  /home/murakami/.local/lib/python3.6/site-packages/numpy (version 1.15.2)
scipy:  /home/murakami/.local/lib/python3.6/site-packages/scipy (version 1.1.0)
units:  Angstrom and eV
cores:  1

Input parameters:
  kpts: {size: (1, 1, 1)}
  maxiter: 300
  xc: PBE

System changes: positions, numbers, cell, pbc, initial_charges, initial_magmoms

Initialize ...

Fe-setup:
  name: Iron
  id: 37abbd8d6c3c35915a9b583b742da910
  Z: 26
  valence: 8
  core: 18
  charge: 0.0
  file: /home/murakami/Public/gpaw-setups-0.9.20000/Fe.PBE.gz
  cutoffs: 1.06(comp), 2.06(filt), 2.67(core), lmax=2
  valence states:
                energy  radius
    4s(2.00)    -5.291   1.164
    4p(0.00)    -1.326   1.058
    3d(6.00)    -7.505   1.058
    *s          21.920   1.164
    *p          25.885   1.058
    *d          19.706   1.058

  Using partial waves for Fe as LCAO basis

O-setup:
  name: Oxygen
  id: 32ecd46bf208036f09c70b0ec9a88b78
  Z: 8
  valence: 6
  core: 2
  charge: 0.0
  file: /home/murakami/Public/gpaw-setups-0.9.20000/O.PBE.gz
  cutoffs: 0.67(comp), 1.17(filt), 0.83(core), lmax=2
  valence states:
                energy  radius
    2s(2.00)   -23.961   0.688
    2p(4.00)    -9.029   0.598
    *s           3.251   0.688
    *p          18.182   0.598
    *d           0.000   0.619

[...]

F-setup:
  name: Fluorine
  id: 9cd46ba2a61e170ad72278be75b55cc0
  Z: 9
  valence: 7
  core: 2
  charge: 0.0
  file: /home/murakami/Public/gpaw-setups-0.9.20000/F.PBE.gz
  cutoffs: 0.64(comp), 1.14(filt), 0.74(core), lmax=2
  valence states:
                energy  radius
    2s(2.00)   -29.898   0.635
    2p(5.00)   -11.110   0.635
    *s          -2.687   0.635
    *p          16.102   0.635
    *d           0.000   0.635

  Using partial waves for F as LCAO basis

Reference energy: -648925.267931

Spin-paired calculation

Occupation numbers:
  Fermi-Dirac: width=0.1000 eV

Convergence criteria:
  Maximum total energy change: 0.0005 eV / electron
  Maximum integral of absolute density change: 0.0001 electrons
  Maximum integral of absolute eigenstate change: 4e-08 eV^2
  Maximum number of iterations: 300

Symmetries present (total): 1

  ( 1  0  0)
  ( 0  1  0)
  ( 0  0  1)

1 k-point (Gamma)
1 k-point in the irreducible part of the Brillouin zone
       k-points in crystal coordinates                weights
   0:     0.00000000    0.00000000    0.00000000          1/1

Eigensolver
   Davidson(niter=1, smin=None, normalize=True)

Densities:
  Coarse grid: 48*28*76 grid
  Fine grid: 96*56*152 grid
  Total Charge: 0.000000

Density mixing:
  Method: separate
  Backend: pulay
  Linear mixing parameter: 0.05
  Mixing with 5 old densities
  Damping of long wave oscillations: 50

Hamiltonian:
  XC and Coulomb potentials evaluated on a 96*56*152 grid
  Using the PBE Exchange-Correlation functional
  Interpolation: tri-quintic (5. degree polynomial)
  Poisson solver: Jacobi solver with 4 multi-grid levels
    Coarsest grid: 12 x 7 x 19 points
    Stencil: 12*3+1=37 point O(h^6) finite-difference Laplacian
    Max iterations: 1000
    Tolerance: 2.000000e-10

Total number of cores used: 1

Number of atoms: 52
Number of atomic orbitals: 288
Number of bands in calculation: 288
Bands to converge: occupied states only
Number of valence electrons: 376

... initialized

Initializing position-dependent things.

Density initialized from atomic densities
Creating initial wave functions:
  288 bands from LCAO basis set

                          Fe
              F       F
             Fe              O
               O        F       F
                            Fe
         F       F        F
               Fe
            FFe    F       F
              F        F     F
         F     F       Fe
                        F   Fe
             Fe  O        F     F
               Fe Fe
            F      F   Fe  O
              F       F     Fe
                          Fe
        F    FeF        F

          F     F Fe     F
            F
                    F     F Fe

Positions:
   0 Fe     1.542848    2.580576    2.677597    ( 0.0000,  0.0000,  0.0000)
   1 Fe     1.542848    2.714986   10.248671    ( 0.0000,  0.0000,  0.0000)
   2 Fe     6.243444    5.260309    2.635533    ( 0.0000,  0.0000,  0.0000)
   3 Fe     6.243444    0.035712   10.113358    ( 0.0000,  0.0000,  0.0000)
   4 Fe     1.648330    2.462443   14.537576    ( 0.0000,  0.0000,  0.0000)
   5 Fe     1.648330    2.790332    7.059751    ( 0.0000,  0.0000,  0.0000)
   6 Fe     6.348925    5.142582   14.413316    ( 0.0000,  0.0000,  0.0000)
   7 Fe     6.348925    0.110598    7.017686    ( 0.0000,  0.0000,  0.0000)
   8 Fe     3.117708    0.096966   12.271643    ( 0.0000,  0.0000,  0.0000)
   9 Fe     3.117708    5.178037    4.793817    ( 0.0000,  0.0000,  0.0000)
  10 Fe     7.818303    2.766886   12.229578    ( 0.0000,  0.0000,  0.0000)
  11 Fe     7.838064    2.498303    4.751576    ( 0.0000,  0.0000,  0.0000)
  12 Fe     3.136416   -0.015000    7.705724    ( 0.0000,  0.0000,  0.0000)
  13 Fe     3.136416    5.367530    0.227899    ( 0.0000,  0.0000,  0.0000)
  14 Fe     7.837011    2.664733    7.663660    ( 0.0000,  0.0000,  0.0000)
  15 Fe     7.837011    2.655318    0.185834    ( 0.0000,  0.0000,  0.0000)
  16 O      2.907450    1.364884   13.814659    ( 0.0000,  0.0000,  0.0000)
  17 O      2.907450    3.894913    6.336834    ( 0.0000,  0.0000,  0.0000)
  18 O      7.629931    4.044617   13.772399    ( 0.0000,  0.0000,  0.0000)
  19 O      7.608045    1.215179    6.294769    ( 0.0000,  0.0000,  0.0000)
  20 F     -0.016396    1.958798    3.648563    ( 0.0000,  0.0000,  0.0000)
  21 F      0.036298    3.327781   11.125917    ( 0.0000,  0.0000,  0.0000)
  22 F      4.736893    4.638531    3.606027    ( 0.0000,  0.0000,  0.0000)
  23 F      4.736893    0.648207   11.051488    ( 0.0000,  0.0000,  0.0000)
  24 F      0.243622    2.075649    8.787256    ( 0.0000,  0.0000,  0.0000)
  25 F      0.284950    3.234617    1.181324    ( 0.0000,  0.0000,  0.0000)
  26 F      4.944218    4.783089    8.617455    ( 0.0000,  0.0000,  0.0000)
  27 F      5.021590    0.554883    1.138937    ( 0.0000,  0.0000,  0.0000)
  28 F      1.655719    1.141676    1.234055    ( 0.0000,  0.0000,  0.0000)
  29 F      1.655719    4.159746    8.711881    ( 0.0000,  0.0000,  0.0000)
  30 F      6.356314    3.821409    1.191991    ( 0.0000,  0.0000,  0.0000)
  31 F      6.356314    1.484729    8.669816    ( 0.0000,  0.0000,  0.0000)
  32 F      1.706072    1.035799   11.043749    ( 0.0000,  0.0000,  0.0000)
  33 F      1.677896    4.251443    3.566175    ( 0.0000,  0.0000,  0.0000)
  34 F      6.406667    3.715533   11.001684    ( 0.0000,  0.0000,  0.0000)
  35 F      6.406667    1.571710    3.523859    ( 0.0000,  0.0000,  0.0000)
  36 F      1.776853    1.050604    6.320255    ( 0.0000,  0.0000,  0.0000)
  37 F      1.776853    4.209456   13.798081    ( 0.0000,  0.0000,  0.0000)
  38 F      6.477449    3.730337    6.278191    ( 0.0000,  0.0000,  0.0000)
  39 F      6.396166    1.529723   13.756744    ( 0.0000,  0.0000,  0.0000)
  40 F      2.759033    1.816362    8.623789    ( 0.0000,  0.0000,  0.0000)
  41 F      2.759033    3.494664    1.145964    ( 0.0000,  0.0000,  0.0000)
  42 F      7.459629    4.542940    8.462752    ( 0.0000,  0.0000,  0.0000)
  43 F      7.459629    0.814931    1.103899    ( 0.0000,  0.0000,  0.0000)
  44 F      2.849557    1.620277    3.549200    ( 0.0000,  0.0000,  0.0000)
  45 F      2.802739    3.666365   11.162030    ( 0.0000,  0.0000,  0.0000)
  46 F      7.468485    4.299346    3.642452    ( 0.0000,  0.0000,  0.0000)
  47 F      7.550153    0.986632   11.119547    ( 0.0000,  0.0000,  0.0000)
  48 F      4.592012    0.690435    6.284475    ( 0.0000,  0.0000,  0.0000)
  49 F      4.574300    4.566765   13.762459    ( 0.0000,  0.0000,  0.0000)
  50 F      9.313892    3.370169    6.242220    ( 0.0000,  0.0000,  0.0000)
  51 F      9.313892    1.889995   13.720045    ( 0.0000,  0.0000,  0.0000)

Unit cell:
           periodic     x           y           z      points  spacing
  1. axis:    yes    9.401191    0.000000   -0.084129    48     0.1959
  2. axis:    yes    0.000000    5.359467    0.000000    28     0.1914
  3. axis:    yes    0.000000   -0.073781   14.955651    76     0.1968

  Lengths:   9.401567   5.359467  14.955833
  Angles:   90.282656  90.512706  90.000000

Effective grid spacing dv^(1/3) = 0.1947

                     log10-error:    total        iterations:
           time      wfs    density  energy       fermi  poisson
iter:   1  15:24:41  +1.49   +inf  -311.450781    3      19
iter:   2  15:25:18  +0.30   +inf  -313.040508    3
iter:   3  15:25:53  -0.28   +inf  -313.474624    2
iter:   4  15:26:33  -0.44  -1.13  -311.624248    3      14
iter:   5  15:27:14  -0.48  -1.14  -319.204360    3      25
iter:   6  15:27:52  -0.14  -1.13  -330.476869    4      33
iter:   7  15:28:39  -0.30  -1.19  -323.037369    4      36
iter:   8  15:29:28  -0.56  -1.22  -302.928040    4      32
iter:   9  15:30:17  -0.90  -1.40  -302.968306    4      23
iter:  10  15:31:15  -1.30  -1.39  -300.551044    2      22
iter:  11  15:32:07  -1.68  -1.44  -301.404777    3      23
iter:  12  15:32:53  -1.43  -1.44  -303.799324    4      29
iter:  13  15:33:36  -1.40  -1.39  -316.316101    4      33
iter:  14  15:34:24  -1.13  -1.26  -301.566167    4      31
iter:  15  15:35:17  -1.37  -1.45  -302.848872    3      26
iter:  16  15:36:07  -1.42  -1.46  -301.838123    3      29
iter:  17  15:37:01  -1.70  -1.44  -300.570721    3      23
iter:  18  15:37:50  -1.80  -1.50  -300.062418    3      17
iter:  19  15:38:41  -1.72  -1.52  -302.366796    4      27
iter:  20  15:39:28  -1.46  -1.48  -301.423281    3      28
iter:  21  15:40:05  -1.74  -1.51  -302.366325    3      25
iter:  22  15:40:49  -1.35  -1.51  -307.764180    3      30
iter:  23  15:41:32  -1.34  -1.42  -301.391386    3      29
iter:  24  15:42:20  -1.55  -1.57  -301.556168    3      26
iter:  25  15:43:05  -1.69  -1.55  -300.161192    3      23
iter:  26  15:43:41  -1.69  -1.63  -301.053958    3      22
iter:  27  15:44:25  -1.68  -1.57  -305.068806    3      30
iter:  28  15:45:08  -1.44  -1.48  -302.935312    2      30
iter:  29  15:45:52  -1.66  -1.54  -300.904386    3      27
iter:  30  15:46:27  -1.94  -1.62  -299.773536    3      22
iter:  31  15:47:05  -2.40  -1.67  -299.686755    3      20
iter:  32  15:47:39  -2.14  -1.68  -300.312665    3      17
iter:  33  15:48:17  -1.77  -1.64  -305.511673    3      29
iter:  34  15:48:56  -1.42  -1.49  -303.834569    2      30
iter:  35  15:49:32  -1.60  -1.53  -300.212232    3      27
iter:  36  15:50:08  -2.03  -1.67  -299.872074    3      17
iter:  37  15:50:45  -2.34  -1.71  -299.465112    3      18
iter:  38  15:51:19  -3.01  -1.74  -299.605287    3      15
iter:  39  15:51:56  -1.98  -1.74  -303.841702    4      28
iter:  40  15:52:32  -1.59  -1.54  -303.046028    3      29
iter:  41  15:53:08  -1.69  -1.58  -300.517589    3      27
iter:  42  15:53:44  -2.01  -1.69  -300.346287    3      25
iter:  43  15:54:20  -1.92  -1.75  -300.039693    3      25
iter:  44  15:54:58  -2.33  -1.73  -299.527516    2      22
iter:  45  15:55:41  -2.33  -1.80  -300.933069    3      25
iter:  46  15:56:19  -2.00  -1.71  -300.131029    3      26
iter:  47  15:56:54  -2.19  -1.76  -299.598367    3      21
iter:  48  15:57:30  -1.99  -1.82  -301.214640    3      24
iter:  49  15:58:06  -1.81  -1.71  -300.241116    3      25
iter:  50  15:58:42  -1.91  -1.80  -299.856375    3      22
iter:  51  15:59:18  -2.06  -1.82  -300.096575    3      23
iter:  52  15:59:54  -2.13  -1.83  -300.141995    3      26
iter:  53  16:00:32  -2.20  -1.82  -299.618411    3      24
iter:  54  16:01:09  -2.36  -1.89  -299.973785    3      22
iter:  55  16:01:44  -2.30  -1.86  -299.564424    3      22
iter:  56  16:02:20  -2.43  -1.94  -299.781428    3      20
iter:  57  16:02:55  -2.51  -1.90  -299.593060    3      21
iter:  58  16:03:31  -2.24  -1.94  -300.910174    3      26
iter:  59  16:04:09  -2.00  -1.77  -299.763180    3      25
iter:  60  16:04:44  -2.29  -1.93  -299.744061    3      17
iter:  61  16:05:26  -2.47  -1.93  -299.579441    3      21
iter:  62  16:06:08  -2.89  -1.98  -299.442953    3      16
iter:  63  16:06:42  -3.38  -2.02  -299.407987    3      12
[...]
iter: 167  17:08:00  -6.86  -3.93  -299.346769    2      3
iter: 168  17:08:40  -5.86  -3.96  -299.347975    2      3
iter: 169  17:09:21  -5.77  -3.77  -299.346933    2      3
iter: 170  17:10:01  -6.02  -3.99  -299.347348    2      3
iter: 171  17:10:36  -5.98  -3.87  -299.347065    2      4
iter: 172  17:11:08  -5.96  -3.85  -299.347132    2      3
iter: 173  17:11:41  -6.51  -3.99  -299.347069    2      2
iter: 174  17:12:14  -6.67  -4.10  -299.347054    2      3
iter: 175  17:12:46  -6.58  -4.05  -299.347046    2      2
iter: 176  17:13:19  -6.40  -4.16  -299.347194    2      3
iter: 177  17:13:52  -6.00  -4.09  -299.346942    2      3
iter: 178  17:14:24  -6.11  -3.92  -299.347121    2      3
iter: 179  17:14:59  -6.55  -4.03  -299.347104    2      3
iter: 180  17:15:33  -7.33  -4.27  -299.347065    2      1
iter: 181  17:16:05  -7.42  -4.30  -299.347016    2      2

Converged after 181 iterations.

Dipole moment: (-22.448997, -7.143465, 2.317720) |e|*Ang

Energy contributions relative to reference atoms: (reference = -648925.267931)

Kinetic:       +218.670598
Potential:     -249.821684
External:        +0.000000
XC:            -280.652345
Entropy (-ST):   -2.841188
Local:          +13.877009
Free energy:   -300.767609
Extrapolated:  -299.347016

Fermi level: 1.60827

 Band  Eigenvalues  Occupancy
    0    -22.24081    2.00000
    1    -22.21588    2.00000
    2    -22.12213    2.00000
    3    -22.10364    2.00000
    4    -22.05072    2.00000
    5    -22.03719    2.00000
    6    -21.96609    2.00000
    7    -21.94008    2.00000
    8    -21.87922    2.00000
    9    -21.86357    2.00000
   10    -21.84240    2.00000
   11    -21.82875    2.00000
   12    -21.68801    2.00000
   13    -21.65745    2.00000
   14    -21.59176    2.00000
   15    -21.58611    2.00000
   16    -21.55780    2.00000
   17    -21.51928    2.00000
   18    -21.46660    2.00000
   19    -21.45355    2.00000
   20    -21.43118    2.00000
   21    -21.42648    2.00000
   22    -21.39684    2.00000
   23    -21.37206    2.00000
   24    -21.33899    2.00000
   25    -21.33457    2.00000
   26    -21.29039    2.00000
   27    -21.23689    2.00000
   28    -21.20778    2.00000
   29    -21.18662    2.00000
   30    -21.18294    2.00000
   31    -21.16670    2.00000
   32    -17.02081    2.00000
   33    -17.00562    2.00000
   34    -16.92615    2.00000
   35    -16.91810    2.00000
   36     -5.38536    2.00000
   37     -5.34806    2.00000
   38     -5.27251    2.00000
   39     -5.19229    2.00000
   40     -5.14079    2.00000
   41     -5.13151    2.00000
   42     -5.06919    2.00000
   43     -5.05032    2.00000
   44     -4.89125    2.00000
   45     -4.83166    2.00000
   46     -4.75685    2.00000
   47     -4.66640    2.00000
   48     -4.60990    2.00000
   49     -4.57064    2.00000
   50     -4.53624    2.00000
   51     -4.52178    2.00000
   52     -4.49198    2.00000
   53     -4.47655    2.00000
   54     -4.43777    2.00000
   55     -4.43276    2.00000
   56     -4.41382    2.00000
   57     -4.40385    2.00000
   58     -4.35476    2.00000
   59     -4.32298    2.00000
[...]
  273     13.15056    0.00000
  274     13.23572    0.00000
  275     13.30936    0.00000
  276     13.34955    0.00000
  277     13.39385    0.00000
  278     13.45387    0.00000
  279     13.59566    0.00000
  280     13.72566    0.00000
  281     14.03960    0.00000
  282     14.12720    0.00000
  283     14.26275    0.00000
  284     14.39902    0.00000
  285     14.48386    0.00000
  286     14.51555    0.00000
  287     14.52510    0.00000