User:   murakami@tssm1.eng.shizuoka.ac.jp
Date:   Thu Mar 28 06:15:21 2019
Arch:   x86_64
Pid:    31289
Python: 3.6.5
gpaw:   /home/murakami/.local/lib/python3.6/site-packages/gpaw
_gpaw:  /home/murakami/.local/lib/python3.6/site-packages/
        _gpaw.cpython-36m-x86_64-linux-gnu.so
ase:    /home/murakami/.local/lib/python3.6/site-packages/ase (version 3.16.2)
numpy:  /home/murakami/.local/lib/python3.6/site-packages/numpy (version 1.15.2)
scipy:  /home/murakami/.local/lib/python3.6/site-packages/scipy (version 1.1.0)
units:  Angstrom and eV
cores:  1

Input parameters:
  kpts: {size: (1, 1, 1)}
  maxiter: 300
  xc: PBE

System changes: positions, numbers, cell, pbc, initial_charges, initial_magmoms

Initialize ...

Fe-setup:
  name: Iron
  id: 37abbd8d6c3c35915a9b583b742da910
  Z: 26
  valence: 8
  core: 18
  charge: 0.0
  file: /home/murakami/Public/gpaw-setups-0.9.20000/Fe.PBE.gz
  cutoffs: 1.06(comp), 2.06(filt), 2.67(core), lmax=2
  valence states:
                energy  radius
    4s(2.00)    -5.291   1.164
    4p(0.00)    -1.326   1.058
    3d(6.00)    -7.505   1.058
    *s          21.920   1.164
    *p          25.885   1.058
    *d          19.706   1.058

  Using partial waves for Fe as LCAO basis

O-setup:
  name: Oxygen
  id: 32ecd46bf208036f09c70b0ec9a88b78
  Z: 8
  valence: 6
  core: 2
  charge: 0.0
  file: /home/murakami/Public/gpaw-setups-0.9.20000/O.PBE.gz
  cutoffs: 0.67(comp), 1.17(filt), 0.83(core), lmax=2
  valence states:
                energy  radius
    2s(2.00)   -23.961   0.688
    2p(4.00)    -9.029   0.598
    *s           3.251   0.688
    *p          18.182   0.598
    *d           0.000   0.619

[...]

F-setup:
  name: Fluorine
  id: 9cd46ba2a61e170ad72278be75b55cc0
  Z: 9
  valence: 7
  core: 2
  charge: 0.0
  file: /home/murakami/Public/gpaw-setups-0.9.20000/F.PBE.gz
  cutoffs: 0.64(comp), 1.14(filt), 0.74(core), lmax=2
  valence states:
                energy  radius
    2s(2.00)   -29.898   0.635
    2p(5.00)   -11.110   0.635
    *s          -2.687   0.635
    *p          16.102   0.635
    *d           0.000   0.635

  Using partial waves for F as LCAO basis

Reference energy: -648925.267931

Spin-paired calculation

Occupation numbers:
  Fermi-Dirac: width=0.1000 eV

Convergence criteria:
  Maximum total energy change: 0.0005 eV / electron
  Maximum integral of absolute density change: 0.0001 electrons
  Maximum integral of absolute eigenstate change: 4e-08 eV^2
  Maximum number of iterations: 300

Symmetries present (total): 1

  ( 1  0  0)
  ( 0  1  0)
  ( 0  0  1)

1 k-point (Gamma)
1 k-point in the irreducible part of the Brillouin zone
       k-points in crystal coordinates                weights
   0:     0.00000000    0.00000000    0.00000000          1/1

Eigensolver
   Davidson(niter=1, smin=None, normalize=True)

Densities:
  Coarse grid: 48*28*76 grid
  Fine grid: 96*56*152 grid
  Total Charge: 0.000000

Density mixing:
  Method: separate
  Backend: pulay
  Linear mixing parameter: 0.05
  Mixing with 5 old densities
  Damping of long wave oscillations: 50

Hamiltonian:
  XC and Coulomb potentials evaluated on a 96*56*152 grid
  Using the PBE Exchange-Correlation functional
  Interpolation: tri-quintic (5. degree polynomial)
  Poisson solver: Jacobi solver with 4 multi-grid levels
    Coarsest grid: 12 x 7 x 19 points
    Stencil: 12*3+1=37 point O(h^6) finite-difference Laplacian
    Max iterations: 1000
    Tolerance: 2.000000e-10

Total number of cores used: 1

Number of atoms: 52
Number of atomic orbitals: 288
Number of bands in calculation: 288
Bands to converge: occupied states only
Number of valence electrons: 376

... initialized

Initializing position-dependent things.

Density initialized from atomic densities
Creating initial wave functions:
  288 bands from LCAO basis set

                          Fe
              F       F
             Fe              O
               O        F       F
                            Fe
         F       F       F
               Fe
            FFe    F       F
              F        F     F
         F     F       Fe
                        F   Fe
             Fe  O        F
               Fe Fe            F
            F      F   Fe  O
              F       F     Fe
                          Fe
         F   FeF        F
                         F
          F     F Fe
            F
                    F     F Fe

Positions:
   0 Fe     1.542848    2.602727    2.664725    ( 0.0000,  0.0000,  0.0000)
   1 Fe     1.542848    2.775935   10.142550    ( 0.0000,  0.0000,  0.0000)
   2 Fe     6.243444    5.265474    2.564941    ( 0.0000,  0.0000,  0.0000)
   3 Fe     6.243444    0.034041   10.061267    ( 0.0000,  0.0000,  0.0000)
   4 Fe     1.624592    2.541918   14.524234    ( 0.0000,  0.0000,  0.0000)
   5 Fe     1.648330    2.835168    7.045998    ( 0.0000,  0.0000,  0.0000)
   6 Fe     6.348925    5.204464   14.442540    ( 0.0000,  0.0000,  0.0000)
   7 Fe     6.348925    0.093275    6.964715    ( 0.0000,  0.0000,  0.0000)
   8 Fe     3.183864    0.132168   12.244486    ( 0.0000,  0.0000,  0.0000)
   9 Fe     3.117708    5.219420    4.767805    ( 0.0000,  0.0000,  0.0000)
  10 Fe     7.818303    2.795471   12.164347    ( 0.0000,  0.0000,  0.0000)
  11 Fe     7.818303    2.477527    4.686521    ( 0.0000,  0.0000,  0.0000)
  12 Fe     3.136416   -0.003057    7.679556    ( 0.0000,  0.0000,  0.0000)
  13 Fe     3.136416    5.354887    0.201731    ( 0.0000,  0.0000,  0.0000)
  14 Fe     7.837011    2.659690    7.598273    ( 0.0000,  0.0000,  0.0000)
  15 Fe     7.837011    2.612994    0.120447    ( 0.0000,  0.0000,  0.0000)
  16 O      2.907450    1.420767   13.790401    ( 0.0000,  0.0000,  0.0000)
  17 O      2.907450    3.934919    6.312576    ( 0.0000,  0.0000,  0.0000)
  18 O      7.608045    4.049794   13.709118    ( 0.0000,  0.0000,  0.0000)
  19 O      7.608045    1.147891    6.231292    ( 0.0000,  0.0000,  0.0000)
  20 F      0.036298    1.993153    3.641043    ( 0.0000,  0.0000,  0.0000)
  21 F      0.036298    3.410876   11.015675    ( 0.0000,  0.0000,  0.0000)
  22 F      4.736893    4.683976    3.566505    ( 0.0000,  0.0000,  0.0000)
  23 F      4.736893    0.668983   11.044330    ( 0.0000,  0.0000,  0.0000)
  24 F      0.243622    2.134819    8.657487    ( 0.0000,  0.0000,  0.0000)
  25 F      0.243622    3.265719    1.179662    ( 0.0000,  0.0000,  0.0000)
  26 F      4.944218    4.797566    8.576204    ( 0.0000,  0.0000,  0.0000)
  27 F      4.944218    0.523825    1.211473    ( 0.0000,  0.0000,  0.0000)
  28 F      1.664302    1.143500    1.220092    ( 0.0000,  0.0000,  0.0000)
  29 F      1.655719    4.233189    8.698066    ( 0.0000,  0.0000,  0.0000)
  30 F      6.356314    3.852604    1.138957    ( 0.0000,  0.0000,  0.0000)
  31 F      6.356314    1.491296    8.616783    ( 0.0000,  0.0000,  0.0000)
  32 F      1.706072    1.085184   11.029514    ( 0.0000,  0.0000,  0.0000)
  33 F      1.706072    4.290730    3.551689    ( 0.0000,  0.0000,  0.0000)
  34 F      6.406667    3.747930   10.948231    ( 0.0000,  0.0000,  0.0000)
  35 F      6.406667    1.548836    3.470405    ( 0.0000,  0.0000,  0.0000)
  36 F      1.776853    1.076022    6.305430    ( 0.0000,  0.0000,  0.0000)
  37 F      1.776853    4.298700   13.783256    ( 0.0000,  0.0000,  0.0000)
  38 F      6.507758    3.738513    6.223623    ( 0.0000,  0.0000,  0.0000)
  39 F      6.477449    1.556807   13.657734    ( 0.0000,  0.0000,  0.0000)
  40 F      2.759033    1.851469    8.600769    ( 0.0000,  0.0000,  0.0000)
  41 F      2.708276    3.507143    1.123822    ( 0.0000,  0.0000,  0.0000)
  42 F      7.459629    4.479042    8.519486    ( 0.0000,  0.0000,  0.0000)
  43 F      7.459629    0.782906    1.041660    ( 0.0000,  0.0000,  0.0000)
  44 F      2.849557    1.627728    3.623309    ( 0.0000,  0.0000,  0.0000)
  45 F      2.849557    3.728933   11.137836    ( 0.0000,  0.0000,  0.0000)
  46 F      7.550153    4.290474    3.674683    ( 0.0000,  0.0000,  0.0000)
  47 F      7.550153    0.987039   11.056553    ( 0.0000,  0.0000,  0.0000)
  48 F      4.530396    0.665025    6.313795    ( 0.0000,  0.0000,  0.0000)
  49 F      4.613296    4.638077   13.723619    ( 0.0000,  0.0000,  0.0000)
  50 F      9.313892    3.351632    6.164510    ( 0.0000,  0.0000,  0.0000)
  51 F      9.316439    1.892568   13.642291    ( 0.0000,  0.0000,  0.0000)

Unit cell:
           periodic     x           y           z      points  spacing
  1. axis:    yes    9.401191   -0.079147   -0.162567    48     0.1959
  2. axis:    yes    0.000000    5.404640    0.000000    28     0.1930
  3. axis:    yes    0.000000    0.000000   14.955651    76     0.1968

  Lengths:   9.402930   5.404640  14.955651
  Angles:   90.000000  90.990635  90.482280

Effective grid spacing dv^(1/3) = 0.1952

                     log10-error:    total        iterations:
           time      wfs    density  energy       fermi  poisson
iter:   1  06:16:24  +1.48   +inf  -311.880025    3      18
iter:   2  06:16:52  +0.29   +inf  -313.426003    3
iter:   3  06:17:21  -0.30   +inf  -313.846625    2
iter:   4  06:17:55  -0.47  -1.13  -311.236398    3      17
iter:   5  06:18:33  -0.45  -1.15  -325.934545    3      29
iter:   6  06:19:14  -0.13  -1.11  -361.675475    3      36
iter:   7  06:19:56  -0.25  -1.12  -315.813870    3      36
iter:   8  06:20:33  -0.40  -1.29  -307.049935    4      29
iter:   9  06:21:10  -0.75  -1.35  -313.214502    37     32
iter:  10  06:21:48  -0.86  -1.27  -301.828521    4      31
iter:  11  06:22:23  -1.52  -1.41  -301.483687    3      21
iter:  12  06:23:03  -1.49  -1.43  -307.982529    4      30
iter:  13  06:23:41  -1.34  -1.33  -302.565583    4      31
iter:  14  06:24:21  -1.56  -1.41  -301.607294    3      24
iter:  15  06:25:00  -1.54  -1.45  -300.936553    4      24
iter:  16  06:25:36  -1.30  -1.50  -308.529206    3      29
iter:  17  06:26:14  -1.26  -1.36  -300.987589    4      28
iter:  18  06:26:52  -1.62  -1.49  -300.946018    4      22
iter:  19  06:27:29  -1.27  -1.54  -313.212469    3      31
iter:  20  06:28:05  -1.27  -1.33  -304.171779    3      30
iter:  21  06:28:41  -1.54  -1.48  -300.843263    3      26
iter:  22  06:29:17  -1.86  -1.57  -300.768516    4      23
iter:  23  06:29:53  -1.42  -1.60  -302.742969    3      25
iter:  24  06:30:30  -1.52  -1.52  -304.106356    3      27
iter:  25  06:31:08  -1.38  -1.52  -307.359749    3      30
iter:  26  06:31:45  -1.48  -1.43  -300.577304    4      30
iter:  27  06:32:21  -2.08  -1.62  -300.008709    3      22
iter:  28  06:32:57  -2.47  -1.66  -300.157937    3      19
iter:  29  06:33:33  -2.08  -1.66  -301.207138    3      24
iter:  30  06:34:10  -1.91  -1.61  -300.867005    2      23
iter:  31  06:34:48  -1.49  -1.64  -314.231297    4      31
iter:  32  06:35:25  -1.30  -1.37  -300.766003    4      31
iter:  33  06:36:01  -1.90  -1.66  -300.397828    3      19
iter:  34  06:36:37  -2.21  -1.68  -300.042434    3      20
iter:  35  06:37:13  -2.45  -1.72  -299.979344    2      19
iter:  36  06:37:49  -2.98  -1.74  -299.948306    3      16
iter:  37  06:38:26  -1.77  -1.75  -305.229788    3      29
iter:  38  06:39:03  -1.48  -1.53  -300.724182    4      29
iter:  39  06:39:40  -2.00  -1.72  -301.368962    3      24
iter:  40  06:40:15  -1.90  -1.71  -301.282046    3      15
iter:  41  06:40:52  -1.82  -1.70  -301.588019    3      26
iter:  42  06:41:29  -2.00  -1.69  -299.844663    3      23
iter:  43  06:42:06  -1.80  -1.83  -304.890814    3      28
iter:  44  06:42:44  -1.65  -1.56  -299.964357    4      29
iter:  45  06:43:19  -2.20  -1.84  -300.139365    3      12
iter:  46  06:43:55  -2.24  -1.83  -300.497831    3      17
iter:  47  06:44:31  -2.03  -1.80  -301.115883    3      23
iter:  48  06:45:08  -1.99  -1.79  -300.399736    3      25
iter:  49  06:45:46  -1.68  -1.80  -308.457643    3      30
iter:  50  06:46:24  -1.54  -1.47  -300.234980    4      30
iter:  51  06:47:00  -2.23  -1.84  -299.813905    3      19
iter:  52  06:47:35  -2.81  -1.93  -299.949933    3      16
iter:  53  06:48:11  -2.33  -1.90  -300.538062    3      22
iter:  54  06:48:47  -2.29  -1.84  -299.928018    3      21
iter:  55  06:49:25  -1.68  -1.93  -310.135337    4      30
iter:  56  06:50:02  -1.52  -1.46  -300.303626    4      30
iter:  57  06:50:37  -2.06  -1.95  -300.319956    3      23
iter:  58  06:51:12  -2.08  -1.87  -300.502760    3      21
iter:  59  06:51:47  -2.14  -1.87  -300.235111    3      21
iter:  60  06:52:23  -2.54  -1.94  -299.817394    3      20
iter:  61  06:52:59  -1.98  -2.03  -304.042478    3      28
iter:  62  06:53:36  -1.77  -1.61  -300.088549    4      28
iter:  63  06:54:11  -2.42  -1.98  -299.780075    3      13
[...]
iter: 173  08:01:25  -5.67  -4.11  -299.662103    2      6
iter: 174  08:02:01  -5.64  -3.58  -299.661248    2      3
iter: 175  08:02:33  -6.35  -4.02  -299.661179    2      3
iter: 176  08:03:17  -6.05  -4.18  -299.661045    2      3
iter: 177  08:04:08  -6.27  -4.02  -299.661126    2      3
iter: 178  08:04:54  -6.71  -4.19  -299.661069    2      2
iter: 179  08:05:46  -6.75  -4.17  -299.661020    2      2
iter: 180  08:06:31  -6.25  -4.20  -299.661199    2      3
iter: 181  08:07:15  -5.89  -4.03  -299.661439    2      3
iter: 182  08:07:49  -6.06  -3.99  -299.661091    2      3
iter: 183  08:08:27  -6.55  -4.22  -299.661175    2      2
iter: 184  08:09:04  -6.72  -4.22  -299.661138    2      2
iter: 185  08:09:39  -6.31  -4.43  -299.661043    2      3
iter: 186  08:10:22  -6.34  -4.07  -299.661128    2      2
iter: 187  08:10:58  -7.54  -4.36  -299.661103    1      1

Converged after 187 iterations.

Dipole moment: (-28.500995, -6.696568, 2.563437) |e|*Ang

Energy contributions relative to reference atoms: (reference = -648925.267931)

Kinetic:       +204.306389
Potential:     -238.523835
External:        +0.000000
XC:            -277.937149
Entropy (-ST):   -2.880898
Local:          +13.933941
Free energy:   -301.101552
Extrapolated:  -299.661103

Fermi level: 1.49737

 Band  Eigenvalues  Occupancy
    0    -22.36601    2.00000
    1    -22.33600    2.00000
    2    -22.24225    2.00000
    3    -22.19489    2.00000
    4    -22.18261    2.00000
    5    -22.10328    2.00000
    6    -22.09199    2.00000
    7    -22.03421    2.00000
    8    -21.91846    2.00000
    9    -21.90947    2.00000
   10    -21.88949    2.00000
   11    -21.87137    2.00000
   12    -21.72881    2.00000
   13    -21.69009    2.00000
   14    -21.67413    2.00000
   15    -21.64364    2.00000
   16    -21.59919    2.00000
   17    -21.57624    2.00000
   18    -21.55780    2.00000
   19    -21.54122    2.00000
   20    -21.50035    2.00000
   21    -21.48139    2.00000
   22    -21.45211    2.00000
   23    -21.38769    2.00000
   24    -21.36455    2.00000
   25    -21.35756    2.00000
   26    -21.28159    2.00000
   27    -21.26306    2.00000
   28    -21.19146    2.00000
   29    -21.15701    2.00000
   30    -21.14460    2.00000
   31    -20.98717    2.00000
   32    -16.98490    2.00000
   33    -16.96846    2.00000
   34    -16.95268    2.00000
   35    -16.85188    2.00000
   36     -5.45502    2.00000
   37     -5.42036    2.00000
   38     -5.36476    2.00000
   39     -5.26677    2.00000
   40     -5.21562    2.00000
   41     -5.19838    2.00000
   42     -5.17826    2.00000
   43     -5.14431    2.00000
   44     -4.98762    2.00000
   45     -4.92064    2.00000
   46     -4.81275    2.00000
   47     -4.71561    2.00000
   48     -4.65298    2.00000
   49     -4.64788    2.00000
   50     -4.60823    2.00000
   51     -4.56181    2.00000
   52     -4.54658    2.00000
   53     -4.51377    2.00000
   54     -4.50241    2.00000
   55     -4.48363    2.00000
   56     -4.44923    2.00000
   57     -4.43891    2.00000
   58     -4.40801    2.00000
   59     -4.39050    2.00000
[...]
  273     12.99455    0.00000
  274     13.10387    0.00000
  275     13.14927    0.00000
  276     13.23523    0.00000
  277     13.24484    0.00000
  278     13.38154    0.00000
  279     13.44297    0.00000
  280     13.59224    0.00000
  281     13.88507    0.00000
  282     13.96761    0.00000
  283     14.10261    0.00000
  284     14.28838    0.00000
  285     14.33156    0.00000
  286     14.36029    0.00000
  287     14.42833    0.00000