User:   murakami@tssm1.eng.shizuoka.ac.jp
Date:   Fri Mar 29 16:59:59 2019
Arch:   x86_64
Pid:    31289
Python: 3.6.5
gpaw:   /home/murakami/.local/lib/python3.6/site-packages/gpaw
_gpaw:  /home/murakami/.local/lib/python3.6/site-packages/
        _gpaw.cpython-36m-x86_64-linux-gnu.so
ase:    /home/murakami/.local/lib/python3.6/site-packages/ase (version 3.16.2)
numpy:  /home/murakami/.local/lib/python3.6/site-packages/numpy (version 1.15.2)
scipy:  /home/murakami/.local/lib/python3.6/site-packages/scipy (version 1.1.0)
units:  Angstrom and eV
cores:  1

Input parameters:
  kpts: {size: (1, 1, 1)}
  maxiter: 300
  xc: PBE

System changes: positions, numbers, cell, pbc, initial_charges, initial_magmoms

Initialize ...

Fe-setup:
  name: Iron
  id: 37abbd8d6c3c35915a9b583b742da910
  Z: 26
  valence: 8
  core: 18
  charge: 0.0
  file: /home/murakami/Public/gpaw-setups-0.9.20000/Fe.PBE.gz
  cutoffs: 1.06(comp), 2.06(filt), 2.67(core), lmax=2
  valence states:
                energy  radius
    4s(2.00)    -5.291   1.164
    4p(0.00)    -1.326   1.058
    3d(6.00)    -7.505   1.058
    *s          21.920   1.164
    *p          25.885   1.058
    *d          19.706   1.058

  Using partial waves for Fe as LCAO basis

O-setup:
  name: Oxygen
  id: 32ecd46bf208036f09c70b0ec9a88b78
  Z: 8
  valence: 6
  core: 2
  charge: 0.0
  file: /home/murakami/Public/gpaw-setups-0.9.20000/O.PBE.gz
  cutoffs: 0.67(comp), 1.17(filt), 0.83(core), lmax=2
  valence states:
                energy  radius
    2s(2.00)   -23.961   0.688
    2p(4.00)    -9.029   0.598
    *s           3.251   0.688
    *p          18.182   0.598
    *d           0.000   0.619

[...]

F-setup:
  name: Fluorine
  id: 9cd46ba2a61e170ad72278be75b55cc0
  Z: 9
  valence: 7
  core: 2
  charge: 0.0
  file: /home/murakami/Public/gpaw-setups-0.9.20000/F.PBE.gz
  cutoffs: 0.64(comp), 1.14(filt), 0.74(core), lmax=2
  valence states:
                energy  radius
    2s(2.00)   -29.898   0.635
    2p(5.00)   -11.110   0.635
    *s          -2.687   0.635
    *p          16.102   0.635
    *d           0.000   0.635

  Using partial waves for F as LCAO basis

Reference energy: -479224.937077

Spin-paired calculation

Occupation numbers:
  Fermi-Dirac: width=0.1000 eV

Convergence criteria:
  Maximum total energy change: 0.0005 eV / electron
  Maximum integral of absolute density change: 0.0001 electrons
  Maximum integral of absolute eigenstate change: 4e-08 eV^2
  Maximum number of iterations: 300

Symmetries present (total): 1

  ( 1  0  0)
  ( 0  1  0)
  ( 0  0  1)

1 k-point (Gamma)
1 k-point in the irreducible part of the Brillouin zone
       k-points in crystal coordinates                weights
   0:     0.00000000    0.00000000    0.00000000          1/1

Eigensolver
   Davidson(niter=1, smin=None, normalize=True)

Densities:
  Coarse grid: 16*104*32 grid
  Fine grid: 32*208*64 grid
  Total Charge: 0.000000

Density mixing:
  Method: separate
  Backend: pulay
  Linear mixing parameter: 0.05
  Mixing with 5 old densities
  Damping of long wave oscillations: 50

Hamiltonian:
  XC and Coulomb potentials evaluated on a 32*208*64 grid
  Using the PBE Exchange-Correlation functional
  Interpolation: tri-quintic (5. degree polynomial)
  Poisson solver: Jacobi solver with 5 multi-grid levels
    Coarsest grid: 2 x 13 x 4 points
    Stencil: 6*3+1=19 point O(h^6) finite-difference Laplacian
    Max iterations: 1000
    Tolerance: 2.000000e-10

Total number of cores used: 1

Number of atoms: 36
Number of atomic orbitals: 204
Number of bands in calculation: 204
Bands to converge: occupied states only
Number of valence electrons: 262

... initialized

Initializing position-dependent things.

Density initialized from atomic densities
Creating initial wave functions:
  204 bands from LCAO basis set

             /|  F    |
          / F |       |
         /    |  F    |
        /   Fe|       |
       /  FFe |F      |
      /O      Fe------.
     /      F/       /
    /  Fe F F   Fe  /
   / F     F   F   /
  /F  F   Fe      /
 *     F Fe  F   /
 |   F  F       /
 F Fe  /       /
 |    F   F   /
 | F Fe      /
 |  /   F   /
 O /   Fe  /
 Fe------*

Positions:
   0 Fe     0.000000    3.425973    3.405553    ( 0.0000,  0.0000,  0.0000)
   1 Fe     0.000000   16.937008    3.405553    ( 0.0000,  0.0000,  0.0000)
   2 Fe     0.000000   13.700665    0.009448    ( 0.0000,  0.0000,  0.0000)
   3 Fe     0.000000    6.848719    0.009448    ( 0.0000,  0.0000,  0.0000)
   4 Fe     1.626314    3.434809    0.000027    ( 0.0000,  0.0000,  0.0000)
   5 Fe     1.626314   17.137755    0.000027    ( 0.0000,  0.0000,  0.0000)
   6 Fe     1.626314   13.686321    3.396133    ( 0.0000,  0.0000,  0.0000)
   7 Fe     1.626314    6.863063    3.396133    ( 0.0000,  0.0000,  0.0000)
   8 Fe     0.000000    0.000000    0.082607    ( 0.0000,  0.0000,  0.0000)
   9 Fe     0.000000   10.274692    3.523140    ( 0.0000,  0.0000,  0.0000)
  10 Fe     1.626314    0.000000    3.226117    ( 0.0000,  0.0000,  0.0000)
  11 Fe     1.605159   10.274692    6.604746    ( 0.0000,  0.0000,  0.0000)
  12 O      0.000000    0.000000    2.093482    ( 0.0000,  0.0000,  0.0000)
  13 O      0.000000   10.274692    5.531319    ( 0.0000,  0.0000,  0.0000)
  14 F      0.000000    3.455769    1.380850    ( 0.0000,  0.0000,  0.0000)
  15 F      0.000000   17.093615    1.380850    ( 0.0000,  0.0000,  0.0000)
  16 F      0.000000   13.730461    4.776955    ( 0.0000,  0.0000,  0.0000)
  17 F      0.000000    6.818923    4.776955    ( 0.0000,  0.0000,  0.0000)
  18 F      0.000000    3.460146    5.429327    ( 0.0000,  0.0000,  0.0000)
  19 F      0.000000   17.089238    5.429327    ( 0.0000,  0.0000,  0.0000)
  20 F      0.000000   13.734838    2.033221    ( 0.0000,  0.0000,  0.0000)
  21 F      0.000000    6.814546    2.033221    ( 0.0000,  0.0000,  0.0000)
  22 F      1.626314    1.405002    6.767331    ( 0.0000,  0.0000,  0.0000)
  23 F      1.626314   19.144382    6.767331    ( 0.0000,  0.0000,  0.0000)
  24 F      1.626314   11.693216    3.371226    ( 0.0000,  0.0000,  0.0000)
  25 F      1.626314    8.869690    3.371226    ( 0.0000,  0.0000,  0.0000)
  26 F      1.626314    2.017621    3.434678    ( 0.0000,  0.0000,  0.0000)
  27 F      1.626314   18.530386    3.434678    ( 0.0000,  0.0000,  0.0000)
  28 F      1.626314   12.292313    0.038573    ( 0.0000,  0.0000,  0.0000)
  29 F      1.626314    8.420357    0.038573    ( 0.0000,  0.0000,  0.0000)
  30 F      1.626314    4.809789    3.406464    ( 0.0000,  0.0000,  0.0000)
  31 F      1.626314   15.739595    3.406464    ( 0.0000,  0.0000,  0.0000)
  32 F      1.626314   15.084481    0.010358    ( 0.0000,  0.0000,  0.0000)
  33 F      1.626314    5.464903    0.010358    ( 0.0000,  0.0000,  0.0000)
  34 F      0.000000    0.000000    4.718827    ( 0.0000,  0.0000,  0.0000)
  35 F      0.000000   10.274692    1.322722    ( 0.0000,  0.0000,  0.0000)

Unit cell:
           periodic     x           y           z      points  spacing
  1. axis:    yes    3.252628    0.000000    0.000000    16     0.2033
  2. axis:    yes    0.000000   20.549384    0.000000   104     0.1976
  3. axis:    yes    0.000000    0.000000    6.792211    32     0.2123

  Lengths:   3.252628  20.549384   6.792211
  Angles:   90.000000  90.000000  90.000000

Effective grid spacing dv^(1/3) = 0.2043

                     log10-error:    total        iterations:
           time      wfs    density  energy       fermi  poisson
iter:   1  17:00:24  +1.74   +inf  -213.257636    3      19
iter:   2  17:00:33  +0.21   +inf  -214.167161    3
iter:   3  17:00:41  -0.37   +inf  -214.430516    2
iter:   4  17:00:51  -0.63  -1.12  -212.025474    3      9
iter:   5  17:01:02  -0.26  -1.16  -249.049876    35     14
iter:   6  17:01:13  -0.28  -1.08  -281.471101    34     16
iter:   7  17:01:24  -0.33  -1.06  -217.147897    35     15
iter:   8  17:01:34  -0.54  -1.29  -209.433626    3      11
iter:   9  17:01:45  -0.82  -1.36  -251.877444    4      15
iter:  10  17:01:56  -0.65  -1.09  -212.389069    3      15
iter:  11  17:02:07  -1.01  -1.32  -206.509282    3      12
iter:  12  17:02:18  -1.65  -1.45  -207.580061    3      11
iter:  13  17:02:29  -1.66  -1.42  -208.417179    3      12
iter:  14  17:02:40  -1.67  -1.40  -206.510152    3      12
iter:  15  17:02:51  -1.55  -1.47  -215.162514    3      12
iter:  16  17:03:01  -1.26  -1.27  -207.274580    2      13
iter:  17  17:03:15  -1.38  -1.48  -208.064848    3      8
iter:  18  17:03:32  -1.42  -1.44  -208.301632    2      12
iter:  19  17:03:50  -1.65  -1.45  -207.995190    3      12
iter:  20  17:04:06  -1.63  -1.48  -207.439284    3      12
iter:  21  17:04:20  -1.91  -1.48  -206.085973    3      11
iter:  22  17:04:33  -2.16  -1.58  -205.904503    3      6
iter:  23  17:04:46  -2.60  -1.60  -205.846614    2      6
iter:  24  17:04:59  -2.64  -1.60  -205.981338    3      9
iter:  25  17:05:11  -2.30  -1.61  -206.707325    3      11
iter:  26  17:05:22  -1.53  -1.60  -224.212672    37     13
iter:  27  17:05:32  -1.08  -1.26  -212.428969    4      14
iter:  28  17:05:43  -1.33  -1.43  -208.450917    3      12
iter:  29  17:05:54  -1.52  -1.55  -206.301076    3      10
iter:  30  17:06:05  -1.95  -1.68  -206.480691    3      10
iter:  31  17:06:16  -2.54  -1.67  -205.815286    3      9
iter:  32  17:06:27  -2.04  -1.76  -210.110090    3      12
iter:  33  17:06:37  -1.67  -1.49  -207.865748    3      13
iter:  34  17:06:48  -1.93  -1.61  -206.268306    2      10
iter:  35  17:06:59  -2.14  -1.75  -205.975639    3      9
iter:  36  17:07:10  -1.91  -1.79  -208.663648    3      11
iter:  37  17:07:21  -1.76  -1.60  -206.523840    3      12
iter:  38  17:07:33  -1.98  -1.73  -208.066362    3      11
iter:  39  17:07:44  -1.94  -1.63  -206.756931    3      12
iter:  40  17:07:55  -2.18  -1.74  -205.917963    2      10
iter:  41  17:08:05  -2.50  -1.87  -205.979452    2      8
iter:  42  17:08:16  -2.77  -1.86  -205.838528    2      8
iter:  43  17:08:27  -2.05  -1.94  -207.257255    2      10
iter:  44  17:08:38  -1.88  -1.73  -207.121770    3      11
iter:  45  17:08:50  -2.05  -1.76  -206.590947    3      11
iter:  46  17:09:01  -2.02  -1.83  -206.020638    2      9
iter:  47  17:09:12  -2.22  -1.95  -206.171471    2      9
iter:  48  17:09:23  -2.66  -1.91  -205.881504    2      8
iter:  49  17:09:34  -3.29  -1.99  -205.955538    2      6
iter:  50  17:09:44  -3.02  -1.99  -206.099774    3      9
iter:  51  17:09:55  -2.12  -1.96  -208.169873    3      11
iter:  52  17:10:06  -1.93  -1.67  -206.124036    3      12
iter:  53  17:10:16  -2.47  -1.95  -206.065728    3      7
iter:  54  17:10:27  -2.53  -1.98  -206.047643    3      7
iter:  55  17:10:37  -2.74  -2.02  -205.951767    2      6
iter:  56  17:10:47  -3.52  -2.02  -205.911923    2      6
iter:  57  17:10:58  -2.25  -2.04  -207.288005    3      11
iter:  58  17:11:09  -1.93  -1.79  -206.071361    2      10
iter:  59  17:11:19  -2.49  -2.03  -206.135557    2      9
iter:  60  17:11:30  -2.66  -2.01  -205.962879    2      8
iter:  61  17:11:40  -2.30  -2.09  -207.373491    2      10
iter:  62  17:11:51  -2.23  -1.80  -205.960841    2      11
iter:  63  17:12:02  -2.66  -2.10  -205.934505    2      8
[...]
iter: 137  17:28:18  -5.59  -3.39  -205.792143    2      3
iter: 138  17:28:29  -5.12  -3.43  -205.795776    2      4
iter: 139  17:28:40  -4.70  -3.28  -205.791037    2      4
iter: 140  17:28:51  -4.80  -3.29  -205.794799    2      4
iter: 141  17:29:03  -5.06  -3.43  -205.792192    1      4
iter: 142  17:29:14  -5.22  -3.39  -205.791966    2      5
iter: 143  17:29:24  -5.24  -3.61  -205.792970    2      4
iter: 144  17:29:34  -5.27  -3.53  -205.793297    2      4
iter: 145  17:29:45  -5.29  -3.61  -205.791031    2      4
iter: 146  17:29:55  -5.76  -3.82  -205.792069    2      3
iter: 147  17:30:05  -6.62  -4.23  -205.791924    2      3
iter: 148  17:30:15  -6.85  -4.55  -205.791860    2      2
iter: 149  17:30:26  -6.95  -4.49  -205.791851    1      2
iter: 150  17:30:38  -6.98  -4.25  -205.791893    2      2
iter: 151  17:30:49  -7.83  -4.49  -205.791890    1      1

Converged after 151 iterations.

Dipole moment: (-25.050783, -31.126099, -33.810263) |e|*Ang

Energy contributions relative to reference atoms: (reference = -479224.937077)

Kinetic:       +177.858109
Potential:     -181.416344
External:        +0.000000
XC:            -212.854793
Entropy (-ST):   -1.402430
Local:          +11.322353
Free energy:   -206.493105
Extrapolated:  -205.791890

Fermi level: 3.83392

 Band  Eigenvalues  Occupancy
    0    -21.29860    2.00000
    1    -20.79610    2.00000
    2    -20.73214    2.00000
    3    -20.63703    2.00000
    4    -20.62367    2.00000
    5    -20.44966    2.00000
    6    -20.41361    2.00000
    7    -20.37591    2.00000
    8    -20.36050    2.00000
    9    -20.34414    2.00000
   10    -20.33366    2.00000
   11    -20.32314    2.00000
   12    -20.30118    2.00000
   13    -20.26516    2.00000
   14    -20.21079    2.00000
   15    -20.18076    2.00000
   16    -20.17136    2.00000
   17    -20.13473    2.00000
   18    -20.12014    2.00000
   19    -19.49861    2.00000
   20    -19.02973    2.00000
   21    -18.83898    2.00000
   22    -14.59419    2.00000
   23    -14.34855    2.00000
   24     -4.38688    2.00000
   25     -4.24014    2.00000
   26     -4.03171    2.00000
   27     -3.96833    2.00000
   28     -3.85678    2.00000
   29     -3.60824    2.00000
   30     -3.49243    2.00000
   31     -3.42245    2.00000
   32     -3.37430    2.00000
   33     -3.20791    2.00000
   34     -3.20504    2.00000
   35     -2.98978    2.00000
   36     -2.73991    2.00000
   37     -2.70201    2.00000
   38     -2.58021    2.00000
   39     -2.47476    2.00000
   40     -2.47027    2.00000
   41     -2.45046    2.00000
   42     -2.42436    2.00000
   43     -2.41105    2.00000
   44     -2.40741    2.00000
   45     -2.40114    2.00000
   46     -2.35043    2.00000
   47     -2.34059    2.00000
   48     -2.33602    2.00000
   49     -2.31959    2.00000
   50     -2.28681    2.00000
   51     -2.23409    2.00000
   52     -2.21183    2.00000
   53     -2.20091    2.00000
   54     -2.19249    2.00000
   55     -2.17354    2.00000
   56     -2.15399    2.00000
   57     -2.14319    2.00000
   58     -2.09484    2.00000
   59     -2.00560    2.00000
[...]
  189     16.22021    0.00000
  190     16.39220    0.00000
  191     16.46610    0.00000
  192     16.54975    0.00000
  193     16.87445    0.00000
  194     16.89514    0.00000
  195     16.93861    0.00000
  196     16.96822    0.00000
  197     16.99960    0.00000
  198     17.06692    0.00000
  199     17.10010    0.00000
  200     17.35449    0.00000
  201     17.42165    0.00000
  202     17.49481    0.00000
  203     17.85444    0.00000