User:   murakami@tssm1.eng.shizuoka.ac.jp
Date:   Fri Mar 29 19:04:09 2019
Arch:   x86_64
Pid:    31289
Python: 3.6.5
gpaw:   /home/murakami/.local/lib/python3.6/site-packages/gpaw
_gpaw:  /home/murakami/.local/lib/python3.6/site-packages/
        _gpaw.cpython-36m-x86_64-linux-gnu.so
ase:    /home/murakami/.local/lib/python3.6/site-packages/ase (version 3.16.2)
numpy:  /home/murakami/.local/lib/python3.6/site-packages/numpy (version 1.15.2)
scipy:  /home/murakami/.local/lib/python3.6/site-packages/scipy (version 1.1.0)
units:  Angstrom and eV
cores:  1

Input parameters:
  kpts: {size: (1, 1, 1)}
  maxiter: 300
  xc: PBE

System changes: positions, numbers, cell, pbc, initial_charges, initial_magmoms

Initialize ...

Fe-setup:
  name: Iron
  id: 37abbd8d6c3c35915a9b583b742da910
  Z: 26
  valence: 8
  core: 18
  charge: 0.0
  file: /home/murakami/Public/gpaw-setups-0.9.20000/Fe.PBE.gz
  cutoffs: 1.06(comp), 2.06(filt), 2.67(core), lmax=2
  valence states:
                energy  radius
    4s(2.00)    -5.291   1.164
    4p(0.00)    -1.326   1.058
    3d(6.00)    -7.505   1.058
    *s          21.920   1.164
    *p          25.885   1.058
    *d          19.706   1.058

  Using partial waves for Fe as LCAO basis

O-setup:
  name: Oxygen
  id: 32ecd46bf208036f09c70b0ec9a88b78
  Z: 8
  valence: 6
  core: 2
  charge: 0.0
  file: /home/murakami/Public/gpaw-setups-0.9.20000/O.PBE.gz
  cutoffs: 0.67(comp), 1.17(filt), 0.83(core), lmax=2
  valence states:
                energy  radius
    2s(2.00)   -23.961   0.688
    2p(4.00)    -9.029   0.598
    *s           3.251   0.688
    *p          18.182   0.598
    *d           0.000   0.619

[...]

F-setup:
  name: Fluorine
  id: 9cd46ba2a61e170ad72278be75b55cc0
  Z: 9
  valence: 7
  core: 2
  charge: 0.0
  file: /home/murakami/Public/gpaw-setups-0.9.20000/F.PBE.gz
  cutoffs: 0.64(comp), 1.14(filt), 0.74(core), lmax=2
  valence states:
                energy  radius
    2s(2.00)   -29.898   0.635
    2p(5.00)   -11.110   0.635
    *s          -2.687   0.635
    *p          16.102   0.635
    *d           0.000   0.635

  Using partial waves for F as LCAO basis

Reference energy: -479224.937077

Spin-paired calculation

Occupation numbers:
  Fermi-Dirac: width=0.1000 eV

Convergence criteria:
  Maximum total energy change: 0.0005 eV / electron
  Maximum integral of absolute density change: 0.0001 electrons
  Maximum integral of absolute eigenstate change: 4e-08 eV^2
  Maximum number of iterations: 300

Symmetries present (total): 1

  ( 1  0  0)
  ( 0  1  0)
  ( 0  0  1)

1 k-point (Gamma)
1 k-point in the irreducible part of the Brillouin zone
       k-points in crystal coordinates                weights
   0:     0.00000000    0.00000000    0.00000000          1/1

Eigensolver
   Davidson(niter=1, smin=None, normalize=True)

Densities:
  Coarse grid: 16*104*32 grid
  Fine grid: 32*208*64 grid
  Total Charge: 0.000000

Density mixing:
  Method: separate
  Backend: pulay
  Linear mixing parameter: 0.05
  Mixing with 5 old densities
  Damping of long wave oscillations: 50

Hamiltonian:
  XC and Coulomb potentials evaluated on a 32*208*64 grid
  Using the PBE Exchange-Correlation functional
  Interpolation: tri-quintic (5. degree polynomial)
  Poisson solver: Jacobi solver with 5 multi-grid levels
    Coarsest grid: 2 x 13 x 4 points
    Stencil: 6*3+1=19 point O(h^6) finite-difference Laplacian
    Max iterations: 1000
    Tolerance: 2.000000e-10

Total number of cores used: 1

Number of atoms: 36
Number of atomic orbitals: 204
Number of bands in calculation: 204
Bands to converge: occupied states only
Number of valence electrons: 262

... initialized

Initializing position-dependent things.

Density initialized from atomic densities
Creating initial wave functions:
  204 bands from LCAO basis set

             /|  F    |
          / F |       |
         /    |  F    |
        /   Fe|       |
       /  FFe |F      |
      /O      Fe------.
     /      F/       /
    /  Fe F F   Fe  /
   / F     F   F   /
  /F  F   Fe      /
 *     F Fe  F   /
 |   F  F       /
 F Fe  /       /
 |    F   F   /
 | F Fe F    /
 O  /       /
 | /   Fe  /
 Fe------*

Positions:
   0 Fe     0.000000    3.425973    3.405553    ( 0.0000,  0.0000,  0.0000)
   1 Fe     0.000000   17.123411    3.405553    ( 0.0000,  0.0000,  0.0000)
   2 Fe     0.000000   13.700665    0.009448    ( 0.0000,  0.0000,  0.0000)
   3 Fe     0.028373    6.848719    0.009448    ( 0.0000,  0.0000,  0.0000)
   4 Fe     1.626314    3.411629    0.000027    ( 0.0000,  0.0000,  0.0000)
   5 Fe     1.626314   17.137755    0.000027    ( 0.0000,  0.0000,  0.0000)
   6 Fe     1.626314   13.686321    3.396133    ( 0.0000,  0.0000,  0.0000)
   7 Fe     1.626314    6.725012    3.396133    ( 0.0000,  0.0000,  0.0000)
   8 Fe     0.000000    0.000000    0.082607    ( 0.0000,  0.0000,  0.0000)
   9 Fe     0.000000   10.274692    3.491529    ( 0.0000,  0.0000,  0.0000)
  10 Fe     1.626314    0.000000    3.208640    ( 0.0000,  0.0000,  0.0000)
  11 Fe     1.626314   10.274692    6.604746    ( 0.0000,  0.0000,  0.0000)
  12 O      0.000000    0.000000    2.135213    ( 0.0000,  0.0000,  0.0000)
  13 O      0.000000   10.274692    5.597420    ( 0.0000,  0.0000,  0.0000)
  14 F      0.000000    3.551920    1.380850    ( 0.0000,  0.0000,  0.0000)
  15 F      0.000000   17.093615    1.380850    ( 0.0000,  0.0000,  0.0000)
  16 F      0.000000   13.730461    4.776955    ( 0.0000,  0.0000,  0.0000)
  17 F      0.000000    6.818923    4.776955    ( 0.0000,  0.0000,  0.0000)
  18 F      0.000000    3.460146    5.429327    ( 0.0000,  0.0000,  0.0000)
  19 F      0.000000   16.962818    5.429327    ( 0.0000,  0.0000,  0.0000)
  20 F      0.000000   13.734838    2.033221    ( 0.0000,  0.0000,  0.0000)
  21 F      0.000000    6.814546    2.033221    ( 0.0000,  0.0000,  0.0000)
  22 F      1.626314    1.558157    6.767331    ( 0.0000,  0.0000,  0.0000)
  23 F      1.634751   19.144382    6.767331    ( 0.0000,  0.0000,  0.0000)
  24 F      1.626314   11.679694    3.371226    ( 0.0000,  0.0000,  0.0000)
  25 F      1.626314    8.869690    3.371226    ( 0.0000,  0.0000,  0.0000)
  26 F      1.633896    2.017621    3.434678    ( 0.0000,  0.0000,  0.0000)
  27 F      1.626314   18.531763    3.434678    ( 0.0000,  0.0000,  0.0000)
  28 F      1.626314   12.090621    0.038573    ( 0.0000,  0.0000,  0.0000)
  29 F      1.626314    8.309000    0.038573    ( 0.0000,  0.0000,  0.0000)
  30 F      1.626314    4.809789    3.360365    ( 0.0000,  0.0000,  0.0000)
  31 F      1.626314   15.739595    3.406464    ( 0.0000,  0.0000,  0.0000)
  32 F      1.626314   15.084481    0.010358    ( 0.0000,  0.0000,  0.0000)
  33 F      1.626314    5.464903    0.043728    ( 0.0000,  0.0000,  0.0000)
  34 F      0.000000    0.000000    4.718827    ( 0.0000,  0.0000,  0.0000)
  35 F      0.000000   10.274692    1.322722    ( 0.0000,  0.0000,  0.0000)

Unit cell:
           periodic     x           y           z      points  spacing
  1. axis:    yes    3.252628    0.000000    0.000000    16     0.2033
  2. axis:    yes    0.000000   20.549384    0.000000   104     0.1976
  3. axis:    yes    0.000000    0.000000    6.792211    32     0.2123

  Lengths:   3.252628  20.549384   6.792211
  Angles:   90.000000  90.000000  90.000000

Effective grid spacing dv^(1/3) = 0.2043

                     log10-error:    total        iterations:
           time      wfs    density  energy       fermi  poisson
iter:   1  19:04:40  +1.74   +inf  -212.844834    3      19
iter:   2  19:04:51  +0.21   +inf  -213.766119    3
iter:   3  19:05:03  -0.36   +inf  -214.032268    2
iter:   4  19:05:18  -0.61  -1.12  -212.618184    3      10
iter:   5  19:05:33  -0.43  -1.15  -254.358355    35     15
iter:   6  19:05:48  -0.54  -1.04  -229.605702    4      15
iter:   7  19:06:03  -0.45  -1.09  -276.042485    35     15
iter:   8  19:06:19  -0.46  -1.03  -230.256868    36     15
iter:   9  19:06:34  -0.42  -1.19  -226.244419    3      15
iter:  10  19:06:48  -0.61  -1.19  -215.465879    4      12
iter:  11  19:07:03  -0.63  -1.27  -212.806576    3      13
iter:  12  19:07:21  -1.01  -1.33  -215.536166    2      12
iter:  13  19:07:36  -1.36  -1.23  -209.004016    3      13
iter:  14  19:07:48  -1.43  -1.35  -206.887902    3      11
iter:  15  19:08:01  -1.66  -1.43  -205.985964    3      10
iter:  16  19:08:14  -1.43  -1.45  -230.638432    32     14
iter:  17  19:08:25  -1.09  -1.15  -207.765699    33     14
iter:  18  19:08:36  -1.43  -1.40  -215.789852    3      13
iter:  19  19:08:47  -1.37  -1.26  -206.960624    3      13
iter:  20  19:08:57  -1.68  -1.45  -205.821840    3      10
iter:  21  19:09:09  -2.08  -1.50  -206.088828    3      9
iter:  22  19:09:20  -1.83  -1.49  -206.696598    3      10
iter:  23  19:09:30  -1.81  -1.50  -206.436161    3      11
iter:  24  19:09:41  -1.47  -1.53  -213.515153    4      11
iter:  25  19:09:52  -1.14  -1.36  -206.986295    3      12
iter:  26  19:10:02  -1.45  -1.54  -207.289291    3      11
iter:  27  19:10:14  -1.67  -1.51  -207.962708    2      12
iter:  28  19:10:25  -1.81  -1.49  -206.323217    3      12
iter:  29  19:10:35  -2.10  -1.58  -205.437516    3      10
iter:  30  19:10:47  -2.04  -1.63  -209.997050    3      12
iter:  31  19:10:58  -1.58  -1.44  -206.181720    3      12
iter:  32  19:11:09  -1.76  -1.59  -207.415443    3      9
iter:  33  19:11:19  -1.72  -1.54  -208.017024    2      12
iter:  34  19:11:30  -1.67  -1.52  -210.893223    3      13
iter:  35  19:11:41  -1.56  -1.40  -205.828418    4      12
iter:  36  19:11:53  -2.07  -1.64  -206.110279    3      9
iter:  37  19:12:04  -1.88  -1.65  -206.335613    3      8
iter:  38  19:12:15  -1.93  -1.64  -207.861975    3      12
iter:  39  19:12:26  -1.74  -1.55  -206.853338    2      11
iter:  40  19:12:38  -1.38  -1.61  -239.004321    4      14
iter:  41  19:12:48  -1.06  -1.20  -206.086547    4      14
iter:  42  19:12:59  -1.81  -1.68  -205.696085    3      9
iter:  43  19:13:09  -2.30  -1.71  -205.701023    2      6
iter:  44  19:13:20  -2.22  -1.72  -207.932634    3      11
iter:  45  19:13:31  -1.85  -1.58  -206.133893    3      11
iter:  46  19:13:42  -1.45  -1.69  -240.791537    4      14
iter:  47  19:13:53  -1.10  -1.20  -205.996048    3      14
iter:  48  19:14:03  -1.81  -1.74  -205.947327    2      9
iter:  49  19:14:14  -2.09  -1.75  -205.715473    3      8
iter:  50  19:14:25  -2.08  -1.77  -207.788428    3      11
iter:  51  19:14:35  -1.82  -1.63  -206.077277    3      12
iter:  52  19:14:46  -1.51  -1.74  -226.131782    4      13
iter:  53  19:14:57  -1.33  -1.26  -206.477585    4      14
iter:  54  19:15:08  -1.91  -1.73  -205.577727    2      10
iter:  55  19:15:19  -2.16  -1.89  -205.761511    2      9
iter:  56  19:15:30  -2.10  -1.82  -206.309299    3      9
iter:  57  19:15:41  -2.00  -1.79  -205.987496    3      9
iter:  58  19:15:52  -2.03  -1.81  -208.558257    3      12
iter:  59  19:16:04  -1.81  -1.61  -207.350622    3      12
iter:  60  19:16:17  -2.03  -1.67  -205.758859    2      11
iter:  61  19:16:30  -2.33  -1.88  -205.573360    3      7
iter:  62  19:16:42  -2.60  -1.91  -206.091707    3      8
iter:  63  19:16:53  -2.16  -1.82  -206.782207    3      10
[...]
iter: 171  19:36:26  -7.03  -4.09  -205.318243    1      2
iter: 172  19:36:37  -6.88  -4.12  -205.318278    2      2
iter: 173  19:36:48  -6.30  -4.11  -205.318056    1      3
iter: 174  19:36:58  -6.15  -4.02  -205.318284    1      3
iter: 175  19:37:09  -6.16  -4.07  -205.318462    2      3
iter: 176  19:37:20  -6.04  -3.75  -205.318409    2      3
iter: 177  19:37:31  -6.62  -4.08  -205.318300    2      2
iter: 178  19:37:41  -6.81  -4.21  -205.318226    1      2
iter: 179  19:37:52  -6.81  -4.18  -205.318121    2      3
iter: 180  19:38:03  -6.36  -4.22  -205.318244    2      3
iter: 181  19:38:13  -6.42  -4.09  -205.318422    2      2
iter: 182  19:38:24  -6.70  -4.18  -205.318321    2      2
iter: 183  19:38:35  -6.82  -4.29  -205.318153    1      2
iter: 184  19:38:45  -6.96  -4.30  -205.318276    1      2
iter: 185  19:38:56  -7.66  -4.38  -205.318295    1      2

Converged after 185 iterations.

Dipole moment: (-25.481630, -31.126190, -35.591756) |e|*Ang

Energy contributions relative to reference atoms: (reference = -479224.937077)

Kinetic:       +182.785233
Potential:     -185.394456
External:        +0.000000
XC:            -213.423551
Entropy (-ST):   -1.429920
Local:          +11.429440
Free energy:   -206.033255
Extrapolated:  -205.318295

Fermi level: 3.82839

 Band  Eigenvalues  Occupancy
    0    -20.98294    2.00000
    1    -20.78132    2.00000
    2    -20.65673    2.00000
    3    -20.62448    2.00000
    4    -20.60933    2.00000
    5    -20.39599    2.00000
    6    -20.36980    2.00000
    7    -20.36560    2.00000
    8    -20.34898    2.00000
    9    -20.32899    2.00000
   10    -20.32661    2.00000
   11    -20.29217    2.00000
   12    -20.28484    2.00000
   13    -20.24775    2.00000
   14    -20.24116    2.00000
   15    -20.20804    2.00000
   16    -20.20702    2.00000
   17    -20.17894    2.00000
   18    -20.07671    2.00000
   19    -19.83162    2.00000
   20    -19.07035    2.00000
   21    -18.80759    2.00000
   22    -14.60057    2.00000
   23    -14.52769    2.00000
   24     -4.33721    2.00000
   25     -4.21926    2.00000
   26     -4.01224    2.00000
   27     -3.94975    2.00000
   28     -3.82350    2.00000
   29     -3.56164    2.00000
   30     -3.50971    2.00000
   31     -3.37731    2.00000
   32     -3.33587    2.00000
   33     -3.14904    2.00000
   34     -2.86419    2.00000
   35     -2.73832    2.00000
   36     -2.71276    2.00000
   37     -2.66914    2.00000
   38     -2.61178    2.00000
   39     -2.59438    2.00000
   40     -2.49409    2.00000
   41     -2.42532    2.00000
   42     -2.41649    2.00000
   43     -2.41156    2.00000
   44     -2.39594    2.00000
   45     -2.38406    2.00000
   46     -2.37022    2.00000
   47     -2.32962    2.00000
   48     -2.32405    2.00000
   49     -2.30902    2.00000
   50     -2.26441    2.00000
   51     -2.24260    2.00000
   52     -2.22269    2.00000
   53     -2.20129    2.00000
   54     -2.17562    2.00000
   55     -2.16831    2.00000
   56     -2.12157    2.00000
   57     -2.10552    2.00000
   58     -2.08645    2.00000
   59     -2.07932    2.00000
[...]
  189     16.25335    0.00000
  190     16.40878    0.00000
  191     16.46370    0.00000
  192     16.52497    0.00000
  193     16.84261    0.00000
  194     16.87599    0.00000
  195     16.90719    0.00000
  196     16.97647    0.00000
  197     17.05527    0.00000
  198     17.08743    0.00000
  199     17.13480    0.00000
  200     17.38301    0.00000
  201     17.38959    0.00000
  202     17.45198    0.00000
  203     17.61463    0.00000