User:   murakami@tssm1.eng.shizuoka.ac.jp
Date:   Fri Mar 29 20:36:01 2019
Arch:   x86_64
Pid:    31289
Python: 3.6.5
gpaw:   /home/murakami/.local/lib/python3.6/site-packages/gpaw
_gpaw:  /home/murakami/.local/lib/python3.6/site-packages/
        _gpaw.cpython-36m-x86_64-linux-gnu.so
ase:    /home/murakami/.local/lib/python3.6/site-packages/ase (version 3.16.2)
numpy:  /home/murakami/.local/lib/python3.6/site-packages/numpy (version 1.15.2)
scipy:  /home/murakami/.local/lib/python3.6/site-packages/scipy (version 1.1.0)
units:  Angstrom and eV
cores:  1

Input parameters:
  kpts: {size: (1, 1, 1)}
  maxiter: 300
  xc: PBE

System changes: positions, numbers, cell, pbc, initial_charges, initial_magmoms

Initialize ...

Fe-setup:
  name: Iron
  id: 37abbd8d6c3c35915a9b583b742da910
  Z: 26
  valence: 8
  core: 18
  charge: 0.0
  file: /home/murakami/Public/gpaw-setups-0.9.20000/Fe.PBE.gz
  cutoffs: 1.06(comp), 2.06(filt), 2.67(core), lmax=2
  valence states:
                energy  radius
    4s(2.00)    -5.291   1.164
    4p(0.00)    -1.326   1.058
    3d(6.00)    -7.505   1.058
    *s          21.920   1.164
    *p          25.885   1.058
    *d          19.706   1.058

  Using partial waves for Fe as LCAO basis

O-setup:
  name: Oxygen
  id: 32ecd46bf208036f09c70b0ec9a88b78
  Z: 8
  valence: 6
  core: 2
  charge: 0.0
  file: /home/murakami/Public/gpaw-setups-0.9.20000/O.PBE.gz
  cutoffs: 0.67(comp), 1.17(filt), 0.83(core), lmax=2
  valence states:
                energy  radius
    2s(2.00)   -23.961   0.688
    2p(4.00)    -9.029   0.598
    *s           3.251   0.688
    *p          18.182   0.598
    *d           0.000   0.619

[...]

F-setup:
  name: Fluorine
  id: 9cd46ba2a61e170ad72278be75b55cc0
  Z: 9
  valence: 7
  core: 2
  charge: 0.0
  file: /home/murakami/Public/gpaw-setups-0.9.20000/F.PBE.gz
  cutoffs: 0.64(comp), 1.14(filt), 0.74(core), lmax=2
  valence states:
                energy  radius
    2s(2.00)   -29.898   0.635
    2p(5.00)   -11.110   0.635
    *s          -2.687   0.635
    *p          16.102   0.635
    *d           0.000   0.635

  Using partial waves for F as LCAO basis

Reference energy: -479224.937077

Spin-paired calculation

Occupation numbers:
  Fermi-Dirac: width=0.1000 eV

Convergence criteria:
  Maximum total energy change: 0.0005 eV / electron
  Maximum integral of absolute density change: 0.0001 electrons
  Maximum integral of absolute eigenstate change: 4e-08 eV^2
  Maximum number of iterations: 300

Symmetries present (total): 1

  ( 1  0  0)
  ( 0  1  0)
  ( 0  0  1)

1 k-point (Gamma)
1 k-point in the irreducible part of the Brillouin zone
       k-points in crystal coordinates                weights
   0:     0.00000000    0.00000000    0.00000000          1/1

Eigensolver
   Davidson(niter=1, smin=None, normalize=True)

Densities:
  Coarse grid: 16*104*32 grid
  Fine grid: 32*208*64 grid
  Total Charge: 0.000000

Density mixing:
  Method: separate
  Backend: pulay
  Linear mixing parameter: 0.05
  Mixing with 5 old densities
  Damping of long wave oscillations: 50

Hamiltonian:
  XC and Coulomb potentials evaluated on a 32*208*64 grid
  Using the PBE Exchange-Correlation functional
  Interpolation: tri-quintic (5. degree polynomial)
  Poisson solver: Jacobi solver with 5 multi-grid levels
    Coarsest grid: 2 x 13 x 4 points
    Stencil: 12*3+1=37 point O(h^6) finite-difference Laplacian
    Max iterations: 1000
    Tolerance: 2.000000e-10

Total number of cores used: 1

Number of atoms: 36
Number of atomic orbitals: 204
Number of bands in calculation: 204
Bands to converge: occupied states only
Number of valence electrons: 262

... initialized

Initializing position-dependent things.

Density initialized from atomic densities
Creating initial wave functions:
  204 bands from LCAO basis set

                       F

[...]

                       F
               F Fee
             O       F
                  F Fe
                  F
             FeF      Fe
           FF   F   F
         F     Fe
             FF    F
         FeF
       F    F   F
           Fe
         F     F
       O     Fe

       Fe

Positions:
   0 Fe     0.000000    3.425973    3.389836    ( 0.0000,  0.0000,  0.0000)
   1 Fe     0.000000   17.123411    3.405553    ( 0.0000,  0.0000,  0.0000)
   2 Fe     0.000000   13.700665    0.009448    ( 0.0000,  0.0000,  0.0000)
   3 Fe     0.000000    6.848719    0.059805    ( 0.0000,  0.0000,  0.0000)
   4 Fe     1.638865    3.419575    0.008472    ( 0.0000,  0.0000,  0.0000)
   5 Fe     1.607612   17.145549    0.008311    ( 0.0000,  0.0000,  0.0000)
   6 Fe     1.638865   13.694267    3.404578    ( 0.0000,  0.0000,  0.0000)
   7 Fe     1.638865    6.871009    3.404578    ( 0.0000,  0.0000,  0.0000)
   8 Fe     0.000000    0.000000    0.082607    ( 0.0000,  0.0000,  0.0000)
   9 Fe     0.000000   10.274692    3.478712    ( 0.0000,  0.0000,  0.0000)
  10 Fe     1.638865    0.007946    3.217085    ( 0.0000,  0.0000,  0.0000)
  11 Fe     1.638865   10.282638    6.613191    ( 0.0000,  0.0000,  0.0000)
  12 O      0.000000    0.000000    2.135213    ( 0.0000,  0.0000,  0.0000)
  13 O      0.000000   10.274692    5.531319    ( 0.0000,  0.0000,  0.0000)
  14 F      0.000000    3.455769    1.427241    ( 0.0000,  0.0000,  0.0000)
  15 F      0.000000   17.093615    1.425264    ( 0.0000,  0.0000,  0.0000)
  16 F      0.000000   13.730461    4.776955    ( 0.0000,  0.0000,  0.0000)
  17 F      0.000000    6.818923    4.738341    ( 0.0000,  0.0000,  0.0000)
  18 F      0.000000    3.491977    5.429327    ( 0.0000,  0.0000,  0.0000)
  19 F      0.000000   17.089238    5.429327    ( 0.0000,  0.0000,  0.0000)
  20 F      0.000000   13.734838    2.033221    ( 0.0000,  0.0000,  0.0000)
  21 F      0.000000    6.814546    2.033221    ( 0.0000,  0.0000,  0.0000)
  22 F      1.638865    1.412948    6.775776    ( 0.0000,  0.0000,  0.0000)
  23 F      1.638865   19.152328    6.775776    ( 0.0000,  0.0000,  0.0000)
  24 F      1.638865   11.687640    3.379671    ( 0.0000,  0.0000,  0.0000)
  25 F      1.619363    8.690583    3.379570    ( 0.0000,  0.0000,  0.0000)
  26 F      1.638865    2.025567    3.443123    ( 0.0000,  0.0000,  0.0000)
  27 F      1.638865   18.687110    3.443123    ( 0.0000,  0.0000,  0.0000)
  28 F      1.638865   12.300259    0.047018    ( 0.0000,  0.0000,  0.0000)
  29 F      1.614820    8.264901    0.046894    ( 0.0000,  0.0000,  0.0000)
  30 F      1.623512    4.817660    3.414830    ( 0.0000,  0.0000,  0.0000)
  31 F      1.638865   15.747541    3.414909    ( 0.0000,  0.0000,  0.0000)
  32 F      1.638865   15.092427    0.018803    ( 0.0000,  0.0000,  0.0000)
  33 F      1.638865    5.472849    0.018803    ( 0.0000,  0.0000,  0.0000)
  34 F      0.000000    0.000000    4.718827    ( 0.0000,  0.0000,  0.0000)
  35 F      0.000000   10.274692    1.322722    ( 0.0000,  0.0000,  0.0000)

Unit cell:
           periodic     x           y           z      points  spacing
  1. axis:    yes    3.277730    0.015892    0.016890    16     0.2049
  2. axis:    yes    0.000000   20.549384    0.000000   104     0.1976
  3. axis:    yes    0.000000    0.000000    6.792211    32     0.2123

  Lengths:   3.277812  20.549384   6.792211
  Angles:   90.000000  89.704763  89.722209

Effective grid spacing dv^(1/3) = 0.2048

                     log10-error:    total        iterations:
           time      wfs    density  energy       fermi  poisson
iter:   1  20:36:28  +1.73   +inf  -213.348638    3      18
iter:   2  20:36:37  +0.20   +inf  -214.249298    3
iter:   3  20:36:45  -0.38   +inf  -214.508559    2
iter:   4  20:36:57  -0.62  -1.12  -213.130148    3      10
iter:   5  20:37:09  -0.44  -1.15  -256.239639    35     14
iter:   6  20:37:20  -0.52  -1.03  -236.630373    3      15
iter:   7  20:37:32  -0.47  -1.06  -266.956829    4      15
iter:   8  20:37:44  -0.44  -1.04  -236.072699    3      15
iter:   9  20:37:56  -0.38  -1.18  -233.758026    3      15
iter:  10  20:38:08  -0.54  -1.13  -211.662063    35     12
iter:  11  20:38:19  -0.66  -1.33  -210.812433    3      12
iter:  12  20:38:31  -1.20  -1.36  -208.636084    2      11
iter:  13  20:38:42  -1.51  -1.37  -208.519591    3      12
iter:  14  20:38:54  -1.52  -1.37  -208.837244    3      12
iter:  15  20:39:06  -1.56  -1.39  -206.861152    2      12
iter:  16  20:39:17  -1.86  -1.43  -206.120511    3      9
iter:  17  20:39:29  -2.09  -1.47  -206.069862    3      7
iter:  18  20:39:41  -1.91  -1.48  -206.390506    3      8
iter:  19  20:39:52  -1.44  -1.49  -221.347907    3      13
iter:  20  20:40:05  -1.22  -1.25  -214.433528    3      14
iter:  21  20:40:17  -0.86  -1.31  -241.537619    3      15
iter:  22  20:40:29  -1.03  -1.16  -206.478723    37     14
iter:  23  20:40:40  -1.57  -1.53  -206.065050    3      8
iter:  24  20:40:51  -1.88  -1.57  -205.882571    2      7
iter:  25  20:41:03  -2.06  -1.59  -207.864355    4      10
iter:  26  20:41:15  -1.41  -1.51  -224.752436    4      14
iter:  27  20:41:27  -1.20  -1.26  -214.721464    4      14
iter:  28  20:41:40  -1.27  -1.33  -212.362992    4      13
iter:  29  20:41:52  -1.46  -1.37  -205.811630    3      12
iter:  30  20:42:03  -2.30  -1.65  -205.853757    2      7
iter:  31  20:42:15  -2.53  -1.66  -206.686673    3      9
iter:  32  20:42:26  -1.77  -1.61  -216.005727    3      13
iter:  33  20:42:38  -1.37  -1.33  -215.714174    3      13
iter:  34  20:42:50  -1.40  -1.31  -208.566858    3      13
iter:  35  20:43:01  -1.70  -1.52  -206.391695    2      9
iter:  36  20:43:12  -2.41  -1.65  -205.995098    2      8
iter:  37  20:43:24  -2.89  -1.69  -206.362620    3      7
iter:  38  20:43:35  -1.66  -1.66  -223.941871    3      13
iter:  39  20:43:47  -1.22  -1.28  -212.980125    3      14
iter:  40  20:43:59  -1.47  -1.37  -207.613093    3      13
iter:  41  20:44:10  -1.95  -1.59  -205.947788    2      10
iter:  42  20:44:21  -2.57  -1.74  -206.060690    2      8
iter:  43  20:44:33  -2.85  -1.72  -206.161583    2      7
iter:  44  20:44:45  -1.90  -1.72  -214.656757    3      13
iter:  45  20:44:57  -1.37  -1.37  -212.778066    2      13
iter:  46  20:45:09  -1.50  -1.40  -207.222373    3      13
iter:  47  20:45:20  -1.94  -1.64  -206.170253    2      10
iter:  48  20:45:32  -2.32  -1.74  -206.164909    2      7
iter:  49  20:45:45  -2.79  -1.75  -205.984799    2      6
iter:  50  20:45:59  -1.75  -1.78  -222.919238    4      13
iter:  51  20:46:13  -1.28  -1.29  -208.835904    3      13
iter:  52  20:46:27  -1.75  -1.56  -206.962524    3      12
iter:  53  20:46:40  -2.18  -1.68  -205.978777    2      10
iter:  54  20:46:54  -2.36  -1.82  -206.035023    2      7
iter:  55  20:47:07  -2.34  -1.85  -205.949762    2      8
iter:  56  20:47:19  -2.21  -1.83  -208.398252    3      11
iter:  57  20:47:31  -1.89  -1.62  -207.286133    3      12
iter:  58  20:47:42  -2.02  -1.69  -206.831175    3      11
iter:  59  20:47:54  -1.93  -1.75  -206.550266    3      11
iter:  60  20:48:05  -2.15  -1.83  -205.983528    2      8
iter:  61  20:48:16  -2.43  -1.94  -205.912499    3      8
iter:  62  20:48:28  -2.89  -1.91  -206.071147    3      8
iter:  63  20:48:40  -2.53  -1.90  -206.612637    3      10
[...]
iter: 154  21:05:57  -5.92  -3.87  -205.750229    2      3
iter: 155  21:06:08  -6.22  -3.72  -205.749979    2      2
iter: 156  21:06:21  -6.43  -4.00  -205.750008    2      3
iter: 157  21:06:34  -6.30  -4.01  -205.750220    2      2
iter: 158  21:06:47  -6.89  -4.18  -205.749983    1      2
iter: 159  21:07:00  -6.61  -4.21  -205.750159    2      2
iter: 160  21:07:12  -6.59  -3.97  -205.750321    2      2
iter: 161  21:07:25  -6.70  -4.00  -205.750244    1      2
iter: 162  21:07:38  -7.22  -4.19  -205.750079    2      2
iter: 163  21:07:51  -6.37  -4.20  -205.750442    1      2
iter: 164  21:08:04  -6.33  -3.99  -205.750015    1      2
iter: 165  21:08:15  -6.72  -4.20  -205.750388    2      2
iter: 166  21:08:26  -6.54  -4.18  -205.750038    2      2
iter: 167  21:08:37  -6.79  -4.06  -205.750095    2      2
iter: 168  21:08:48  -7.44  -4.20  -205.750057    1      1

Converged after 168 iterations.

Dipole moment: (-25.447590, -31.263362, -35.827161) |e|*Ang

Energy contributions relative to reference atoms: (reference = -479224.937077)

Kinetic:       +177.424753
Potential:     -182.227527
External:        +0.000000
XC:            -211.628326
Entropy (-ST):   -1.456707
Local:          +11.409397
Free energy:   -206.478411
Extrapolated:  -205.750057

Fermi level: 3.73748

 Band  Eigenvalues  Occupancy
    0    -20.85521    2.00000
    1    -20.81091    2.00000
    2    -20.69501    2.00000
    3    -20.66031    2.00000
    4    -20.44710    2.00000
    5    -20.43434    2.00000
    6    -20.40898    2.00000
    7    -20.40317    2.00000
    8    -20.39302    2.00000
    9    -20.37908    2.00000
   10    -20.37171    2.00000
   11    -20.32891    2.00000
   12    -20.31448    2.00000
   13    -20.26979    2.00000
   14    -20.24654    2.00000
   15    -20.22977    2.00000
   16    -20.21960    2.00000
   17    -20.20428    2.00000
   18    -20.19442    2.00000
   19    -20.15822    2.00000
   20    -19.10843    2.00000
   21    -19.00830    2.00000
   22    -14.53940    2.00000
   23    -14.50914    2.00000
   24     -4.31723    2.00000
   25     -4.22677    2.00000
   26     -4.05822    2.00000
   27     -3.99139    2.00000
   28     -3.77654    2.00000
   29     -3.57470    2.00000
   30     -3.50579    2.00000
   31     -3.46845    2.00000
   32     -3.38352    2.00000
   33     -3.17222    2.00000
   34     -2.79062    2.00000
   35     -2.75172    2.00000
   36     -2.68656    2.00000
   37     -2.67877    2.00000
   38     -2.61489    2.00000
   39     -2.54952    2.00000
   40     -2.51038    2.00000
   41     -2.46694    2.00000
   42     -2.44847    2.00000
   43     -2.43460    2.00000
   44     -2.42152    2.00000
   45     -2.40230    2.00000
   46     -2.36970    2.00000
   47     -2.36831    2.00000
   48     -2.36051    2.00000
   49     -2.34173    2.00000
   50     -2.31654    2.00000
   51     -2.26434    2.00000
   52     -2.25356    2.00000
   53     -2.24030    2.00000
   54     -2.23268    2.00000
   55     -2.22084    2.00000
   56     -2.21769    2.00000
   57     -2.18096    2.00000
   58     -2.17013    2.00000
   59     -2.15586    2.00000
[...]
  189     16.12149    0.00000
  190     16.31010    0.00000
  191     16.33353    0.00000
  192     16.36341    0.00000
  193     16.75312    0.00000
  194     16.78920    0.00000
  195     16.84491    0.00000
  196     16.91074    0.00000
  197     16.95572    0.00000
  198     17.02492    0.00000
  199     17.11204    0.00000
  200     17.29672    0.00000
  201     17.30880    0.00000
  202     17.33462    0.00000
  203     17.54199    0.00000