User:   murakami@tssm1.eng.shizuoka.ac.jp
Date:   Sat Mar 30 03:13:39 2019
Arch:   x86_64
Pid:    31289
Python: 3.6.5
gpaw:   /home/murakami/.local/lib/python3.6/site-packages/gpaw
_gpaw:  /home/murakami/.local/lib/python3.6/site-packages/
        _gpaw.cpython-36m-x86_64-linux-gnu.so
ase:    /home/murakami/.local/lib/python3.6/site-packages/ase (version 3.16.2)
numpy:  /home/murakami/.local/lib/python3.6/site-packages/numpy (version 1.15.2)
scipy:  /home/murakami/.local/lib/python3.6/site-packages/scipy (version 1.1.0)
units:  Angstrom and eV
cores:  1

Input parameters:
  kpts: {size: (1, 1, 1)}
  maxiter: 300
  xc: PBE

System changes: positions, numbers, cell, pbc, initial_charges, initial_magmoms

Initialize ...

Fe-setup:
  name: Iron
  id: 37abbd8d6c3c35915a9b583b742da910
  Z: 26
  valence: 8
  core: 18
  charge: 0.0
  file: /home/murakami/Public/gpaw-setups-0.9.20000/Fe.PBE.gz
  cutoffs: 1.06(comp), 2.06(filt), 2.67(core), lmax=2
  valence states:
                energy  radius
    4s(2.00)    -5.291   1.164
    4p(0.00)    -1.326   1.058
    3d(6.00)    -7.505   1.058
    *s          21.920   1.164
    *p          25.885   1.058
    *d          19.706   1.058

  Using partial waves for Fe as LCAO basis

O-setup:
  name: Oxygen
  id: 32ecd46bf208036f09c70b0ec9a88b78
  Z: 8
  valence: 6
  core: 2
  charge: 0.0
  file: /home/murakami/Public/gpaw-setups-0.9.20000/O.PBE.gz
  cutoffs: 0.67(comp), 1.17(filt), 0.83(core), lmax=2
  valence states:
                energy  radius
    2s(2.00)   -23.961   0.688
    2p(4.00)    -9.029   0.598
    *s           3.251   0.688
    *p          18.182   0.598
    *d           0.000   0.619

[...]

F-setup:
  name: Fluorine
  id: 9cd46ba2a61e170ad72278be75b55cc0
  Z: 9
  valence: 7
  core: 2
  charge: 0.0
  file: /home/murakami/Public/gpaw-setups-0.9.20000/F.PBE.gz
  cutoffs: 0.64(comp), 1.14(filt), 0.74(core), lmax=2
  valence states:
                energy  radius
    2s(2.00)   -29.898   0.635
    2p(5.00)   -11.110   0.635
    *s          -2.687   0.635
    *p          16.102   0.635
    *d           0.000   0.635

  Using partial waves for F as LCAO basis

Reference energy: -479224.937077

Spin-paired calculation

Occupation numbers:
  Fermi-Dirac: width=0.1000 eV

Convergence criteria:
  Maximum total energy change: 0.0005 eV / electron
  Maximum integral of absolute density change: 0.0001 electrons
  Maximum integral of absolute eigenstate change: 4e-08 eV^2
  Maximum number of iterations: 300

Symmetries present (total): 1

  ( 1  0  0)
  ( 0  1  0)
  ( 0  0  1)

1 k-point (Gamma)
1 k-point in the irreducible part of the Brillouin zone
       k-points in crystal coordinates                weights
   0:     0.00000000    0.00000000    0.00000000          1/1

Eigensolver
   Davidson(niter=1, smin=None, normalize=True)

Densities:
  Coarse grid: 16*104*36 grid
  Fine grid: 32*208*72 grid
  Total Charge: 0.000000

Density mixing:
  Method: separate
  Backend: pulay
  Linear mixing parameter: 0.05
  Mixing with 5 old densities
  Damping of long wave oscillations: 50

Hamiltonian:
  XC and Coulomb potentials evaluated on a 32*208*72 grid
  Using the PBE Exchange-Correlation functional
  Interpolation: tri-quintic (5. degree polynomial)
  Poisson solver: Jacobi solver with 4 multi-grid levels
    Coarsest grid: 4 x 26 x 9 points
    Warning: Coarse grid has more than 24 points.
             More multi-grid levels recommended.
    Stencil: 8*3+1=25 point O(h^6) finite-difference Laplacian
    Max iterations: 1000
    Tolerance: 2.000000e-10

Total number of cores used: 1

Number of atoms: 36
Number of atomic orbitals: 204
Number of bands in calculation: 204
Bands to converge: occupied states only
Number of valence electrons: 262

... initialized

Initializing position-dependent things.

Density initialized from atomic densities
Creating initial wave functions:
  204 bands from LCAO basis set

                       F

[...]

                      F
                FFee
             O       F
                  F Fe
                  F
           F Fe F     Fe
            F    F  F
         F     Fe
             FF    F
         FeF
       F    F   F
           Fe
         F     F
       O     Fe

       Fe

Positions:
   0 Fe     0.000000    3.425973    3.424476    ( 0.0000,  0.0000,  0.0000)
   1 Fe     0.000000   17.123411    3.427532    ( 0.0000,  0.0000,  0.0000)
   2 Fe     0.000000   13.577430    0.068983    ( 0.0000,  0.0000,  0.0000)
   3 Fe     0.000000    6.999449    0.009509    ( 0.0000,  0.0000,  0.0000)
   4 Fe     1.626314    3.397978    0.000027    ( 0.0000,  0.0000,  0.0000)
   5 Fe     1.626314   17.124103    0.000027    ( 0.0000,  0.0000,  0.0000)
   6 Fe     1.626314   13.672670    3.418050    ( 0.0000,  0.0000,  0.0000)
   7 Fe     1.626314    6.849411    3.418050    ( 0.0000,  0.0000,  0.0000)
   8 Fe     0.000000    0.000000    0.083140    ( 0.0000,  0.0000,  0.0000)
   9 Fe     0.019529   10.274528    3.436973    ( 0.0000,  0.0000,  0.0000)
  10 Fe     1.626314   -0.013652    3.229348    ( 0.0000,  0.0000,  0.0000)
  11 Fe     1.626314   10.235148    6.647371    ( 0.0000,  0.0000,  0.0000)
  12 O      0.000000    0.014754    2.148993    ( 0.0000,  0.0000,  0.0000)
  13 O      0.019483   10.206469    5.567016    ( 0.0000,  0.0000,  0.0000)
  14 F      0.000000    3.455769    1.389761    ( 0.0000,  0.0000,  0.0000)
  15 F      0.000000   17.093615    1.329796    ( 0.0000,  0.0000,  0.0000)
  16 F      0.000000   13.810625    4.807784    ( 0.0000,  0.0000,  0.0000)
  17 F      0.000000    6.818923    4.807784    ( 0.0000,  0.0000,  0.0000)
  18 F      0.000000    3.460146    5.464366    ( 0.0000,  0.0000,  0.0000)
  19 F      0.000000   17.089238    5.464366    ( 0.0000,  0.0000,  0.0000)
  20 F      0.000000   13.734838    2.024741    ( 0.0000,  0.0000,  0.0000)
  21 F      0.000000    6.814546    2.046343    ( 0.0000,  0.0000,  0.0000)
  22 F      1.626314    1.391351    6.811006    ( 0.0000,  0.0000,  0.0000)
  23 F      1.626314   19.130730    6.811006    ( 0.0000,  0.0000,  0.0000)
  24 F      1.626314   11.666043    3.392983    ( 0.0000,  0.0000,  0.0000)
  25 F      1.626314    8.856038    3.392983    ( 0.0000,  0.0000,  0.0000)
  26 F      1.626314    2.003969    3.456845    ( 0.0000,  0.0000,  0.0000)
  27 F      1.626314   18.518112    3.456845    ( 0.0000,  0.0000,  0.0000)
  28 F      1.626314   12.278661    0.038822    ( 0.0000,  0.0000,  0.0000)
  29 F      1.626314    8.243420   -0.028944    ( 0.0000,  0.0000,  0.0000)
  30 F      1.626314    4.796137    3.428448    ( 0.0000,  0.0000,  0.0000)
  31 F      1.626314   15.725944    3.428448    ( 0.0000,  0.0000,  0.0000)
  32 F      1.626314   15.070829    0.010425    ( 0.0000,  0.0000,  0.0000)
  33 F      1.626314    5.451252    0.030523    ( 0.0000,  0.0000,  0.0000)
  34 F      0.000000    0.000000    4.749281    ( 0.0000,  0.0000,  0.0000)
  35 F      0.000000   10.274692    1.331258    ( 0.0000,  0.0000,  0.0000)

Unit cell:
           periodic     x           y           z      points  spacing
  1. axis:    yes    3.252628   -0.027303    0.000000    16     0.2033
  2. axis:    yes    0.000000   20.549384    0.000000   104     0.1976
  3. axis:    yes    0.000000    0.000000    6.836046    36     0.1899

  Lengths:   3.252743  20.549384   6.836046
  Angles:   90.000000  90.000000  90.480937

Effective grid spacing dv^(1/3) = 0.1968

                     log10-error:    total        iterations:
           time      wfs    density  energy       fermi  poisson
iter:   1  03:14:08  +1.76   +inf  -211.727100    3      28
iter:   2  03:14:17  +0.20   +inf  -212.599864    3
iter:   3  03:14:27  -0.38   +inf  -212.849975    2
iter:   4  03:14:40  -0.64  -1.12  -210.735257    3      20
iter:   5  03:14:55  -0.30  -1.16  -231.947642    36     52
iter:   6  03:15:11  -0.31  -1.10  -265.009675    4      62
iter:   7  03:15:27  -0.26  -1.05  -231.081197    4      63
iter:   8  03:15:43  -0.38  -1.19  -236.539775    3      61
iter:   9  03:15:58  -0.49  -1.13  -243.960904    36     61
iter:  10  03:16:14  -0.57  -1.12  -208.834323    3      57
iter:  11  03:16:28  -1.01  -1.35  -206.430562    3      39
iter:  12  03:16:43  -1.25  -1.41  -211.717290    3      51
iter:  13  03:16:58  -1.07  -1.30  -217.992062    3      53
iter:  14  03:17:14  -1.14  -1.22  -205.803373    3      54
iter:  15  03:17:29  -1.62  -1.44  -209.554317    3      47
iter:  16  03:17:43  -1.51  -1.36  -206.483341    3      50
iter:  17  03:17:57  -1.81  -1.43  -205.024739    3      37
iter:  18  03:18:10  -2.08  -1.48  -205.215345    3      26
iter:  19  03:18:24  -1.37  -1.50  -213.748167    4      51
iter:  20  03:18:39  -0.97  -1.37  -222.220093    3      55
iter:  21  03:18:54  -1.15  -1.21  -217.891821    4      59
iter:  22  03:19:09  -1.18  -1.27  -204.854479    3      52
iter:  23  03:19:22  -1.61  -1.59  -205.561426    3      34
iter:  24  03:19:35  -1.66  -1.58  -204.541523    3      28
iter:  25  03:19:49  -2.07  -1.62  -205.694894    3      39
iter:  26  03:20:03  -1.65  -1.58  -210.483157    3      49
iter:  27  03:20:19  -1.41  -1.38  -215.140707    3      56
iter:  28  03:20:34  -1.31  -1.29  -206.360569    3      52
iter:  29  03:20:48  -1.72  -1.54  -206.016926    2      48
iter:  30  03:21:02  -2.06  -1.57  -204.638021    3      38
iter:  31  03:21:16  -2.84  -1.66  -204.850694    3      25
iter:  32  03:21:31  -1.96  -1.65  -210.607446    3      48
iter:  33  03:21:45  -1.44  -1.40  -217.644239    3      57
iter:  34  03:22:00  -1.24  -1.27  -212.952279    3      54
iter:  35  03:22:15  -1.42  -1.34  -205.151346    3      51
iter:  36  03:22:29  -2.06  -1.65  -205.024379    2      23
iter:  37  03:22:41  -2.43  -1.67  -204.931134    2      15
iter:  38  03:22:56  -2.02  -1.68  -210.450334    3      47
iter:  39  03:23:12  -1.42  -1.42  -218.207334    4      57
iter:  40  03:23:27  -1.22  -1.29  -219.919465    3      56
iter:  41  03:23:41  -1.25  -1.28  -204.796299    3      53
iter:  42  03:23:55  -1.91  -1.72  -205.095001    3      32
iter:  43  03:24:08  -2.33  -1.71  -204.551559    3      33
iter:  44  03:24:22  -2.13  -1.78  -208.735904    3      46
iter:  45  03:24:37  -1.58  -1.50  -211.732085    3      54
iter:  46  03:24:52  -1.42  -1.40  -212.251616    3      54
iter:  47  03:25:06  -1.51  -1.39  -204.847205    3      49
iter:  48  03:25:20  -2.11  -1.78  -205.072308    3      38
iter:  49  03:25:33  -2.36  -1.76  -204.561023    3      35
iter:  50  03:25:48  -2.28  -1.84  -208.201383    3      46
iter:  51  03:26:03  -1.68  -1.54  -209.384188    3      53
iter:  52  03:26:18  -1.52  -1.48  -211.733856    3      53
iter:  53  03:26:33  -1.62  -1.41  -204.583942    3      49
iter:  54  03:26:45  -2.26  -1.86  -204.704801    3      21
iter:  55  03:27:01  -2.37  -1.86  -204.777741    2      24
iter:  56  03:27:18  -2.03  -1.84  -208.707495    3      46
iter:  57  03:27:36  -1.61  -1.54  -210.300501    3      54
iter:  58  03:27:54  -1.48  -1.46  -211.695049    3      53
iter:  59  03:28:12  -1.58  -1.42  -205.025183    3      51
iter:  60  03:28:28  -2.19  -1.83  -204.636437    3      32
iter:  61  03:28:41  -2.96  -1.91  -204.629272    2      14
iter:  62  03:28:55  -2.22  -1.91  -207.687940    3      44
iter:  63  03:29:10  -1.73  -1.59  -209.753266    3      53
[...]
iter: 260  04:12:35  -6.87  -3.64  -204.452576    1      1
iter: 261  04:12:48  -4.65  -3.62  -204.466647    2      21
iter: 262  04:13:00  -4.66  -2.86  -204.454734    2      15
iter: 263  04:13:12  -5.86  -3.22  -204.453887    2      4
iter: 264  04:13:24  -6.02  -3.30  -204.453634    2      3
iter: 265  04:13:36  -5.02  -3.38  -204.454157    2      17
iter: 266  04:13:48  -5.07  -3.27  -204.453369    2      6
iter: 267  04:14:00  -6.11  -3.51  -204.452836    2      3
iter: 268  04:14:11  -6.41  -3.63  -204.452628    1      4
iter: 269  04:14:23  -6.47  -3.84  -204.452478    2      3
iter: 270  04:14:35  -6.49  -4.07  -204.452391    2      5
iter: 271  04:14:51  -6.37  -4.33  -204.452523    2      2
iter: 272  04:15:05  -7.00  -4.20  -204.452478    2      1
iter: 273  04:15:23  -7.27  -4.18  -204.452435    2      1
iter: 274  04:15:42  -7.58  -4.18  -204.452461    1      1

Converged after 274 iterations.

Dipole moment: (-25.861776, -33.449832, -29.726091) |e|*Ang

Energy contributions relative to reference atoms: (reference = -479224.937077)

Kinetic:       +169.423306
Potential:     -171.423925
External:        +0.000000
XC:            -211.398263
Entropy (-ST):   -1.437503
Local:           +9.665172
Free energy:   -205.171212
Extrapolated:  -204.452461

Fermi level: 3.75826

 Band  Eigenvalues  Occupancy
    0    -21.09051    2.00000
    1    -20.88762    2.00000
    2    -20.72655    2.00000
    3    -20.70597    2.00000
    4    -20.65644    2.00000
    5    -20.59475    2.00000
    6    -20.48732    2.00000
    7    -20.44074    2.00000
    8    -20.38495    2.00000
    9    -20.34119    2.00000
   10    -20.33433    2.00000
   11    -20.31010    2.00000
   12    -20.30062    2.00000
   13    -20.28416    2.00000
   14    -20.26759    2.00000
   15    -20.23866    2.00000
   16    -20.21655    2.00000
   17    -20.15717    2.00000
   18    -19.86807    2.00000
   19    -19.79019    2.00000
   20    -19.37355    2.00000
   21    -19.02066    2.00000
   22    -14.53673    2.00000
   23    -14.46144    2.00000
   24     -4.30532    2.00000
   25     -4.16534    2.00000
   26     -4.02929    2.00000
   27     -3.91708    2.00000
   28     -3.86470    2.00000
   29     -3.62672    2.00000
   30     -3.59678    2.00000
   31     -3.54551    2.00000
   32     -3.39499    2.00000
   33     -3.25338    2.00000
   34     -2.90531    2.00000
   35     -2.79767    2.00000
   36     -2.67976    2.00000
   37     -2.65157    2.00000
   38     -2.60874    2.00000
   39     -2.56608    2.00000
   40     -2.54354    2.00000
   41     -2.52328    2.00000
   42     -2.46828    2.00000
   43     -2.45751    2.00000
   44     -2.43932    2.00000
   45     -2.42282    2.00000
   46     -2.38968    2.00000
   47     -2.34453    2.00000
   48     -2.33940    2.00000
   49     -2.32176    2.00000
   50     -2.30368    2.00000
   51     -2.29974    2.00000
   52     -2.29837    2.00000
   53     -2.27894    2.00000
   54     -2.26404    2.00000
   55     -2.24007    2.00000
   56     -2.20868    2.00000
   57     -2.18394    2.00000
   58     -2.13873    2.00000
   59     -2.11941    2.00000
[...]
  189     16.19043    0.00000
  190     16.27116    0.00000
  191     16.34631    0.00000
  192     16.44085    0.00000
  193     16.66290    0.00000
  194     16.69586    0.00000
  195     16.75645    0.00000
  196     16.82116    0.00000
  197     16.89062    0.00000
  198     16.97900    0.00000
  199     17.02563    0.00000
  200     17.17932    0.00000
  201     17.27557    0.00000
  202     17.30489    0.00000
  203     17.35696    0.00000