User:   murakami@tssm1.eng.shizuoka.ac.jp
Date:   Sat Mar 30 05:13:17 2019
Arch:   x86_64
Pid:    31289
Python: 3.6.5
gpaw:   /home/murakami/.local/lib/python3.6/site-packages/gpaw
_gpaw:  /home/murakami/.local/lib/python3.6/site-packages/
        _gpaw.cpython-36m-x86_64-linux-gnu.so
ase:    /home/murakami/.local/lib/python3.6/site-packages/ase (version 3.16.2)
numpy:  /home/murakami/.local/lib/python3.6/site-packages/numpy (version 1.15.2)
scipy:  /home/murakami/.local/lib/python3.6/site-packages/scipy (version 1.1.0)
units:  Angstrom and eV
cores:  1

Input parameters:
  kpts: {size: (1, 1, 1)}
  maxiter: 300
  xc: PBE

System changes: positions, numbers, cell, pbc, initial_charges, initial_magmoms

Initialize ...

Fe-setup:
  name: Iron
  id: 37abbd8d6c3c35915a9b583b742da910
  Z: 26
  valence: 8
  core: 18
  charge: 0.0
  file: /home/murakami/Public/gpaw-setups-0.9.20000/Fe.PBE.gz
  cutoffs: 1.06(comp), 2.06(filt), 2.67(core), lmax=2
  valence states:
                energy  radius
    4s(2.00)    -5.291   1.164
    4p(0.00)    -1.326   1.058
    3d(6.00)    -7.505   1.058
    *s          21.920   1.164
    *p          25.885   1.058
    *d          19.706   1.058

  Using partial waves for Fe as LCAO basis

O-setup:
  name: Oxygen
  id: 32ecd46bf208036f09c70b0ec9a88b78
  Z: 8
  valence: 6
  core: 2
  charge: 0.0
  file: /home/murakami/Public/gpaw-setups-0.9.20000/O.PBE.gz
  cutoffs: 0.67(comp), 1.17(filt), 0.83(core), lmax=2
  valence states:
                energy  radius
    2s(2.00)   -23.961   0.688
    2p(4.00)    -9.029   0.598
    *s           3.251   0.688
    *p          18.182   0.598
    *d           0.000   0.619

[...]

F-setup:
  name: Fluorine
  id: 9cd46ba2a61e170ad72278be75b55cc0
  Z: 9
  valence: 7
  core: 2
  charge: 0.0
  file: /home/murakami/Public/gpaw-setups-0.9.20000/F.PBE.gz
  cutoffs: 0.64(comp), 1.14(filt), 0.74(core), lmax=2
  valence states:
                energy  radius
    2s(2.00)   -29.898   0.635
    2p(5.00)   -11.110   0.635
    *s          -2.687   0.635
    *p          16.102   0.635
    *d           0.000   0.635

  Using partial waves for F as LCAO basis

Reference energy: -479224.937077

Spin-paired calculation

Occupation numbers:
  Fermi-Dirac: width=0.1000 eV

Convergence criteria:
  Maximum total energy change: 0.0005 eV / electron
  Maximum integral of absolute density change: 0.0001 electrons
  Maximum integral of absolute eigenstate change: 4e-08 eV^2
  Maximum number of iterations: 300

Symmetries present (total): 1

  ( 1  0  0)
  ( 0  1  0)
  ( 0  0  1)

1 k-point (Gamma)
1 k-point in the irreducible part of the Brillouin zone
       k-points in crystal coordinates                weights
   0:     0.00000000    0.00000000    0.00000000          1/1

Eigensolver
   Davidson(niter=1, smin=None, normalize=True)

Densities:
  Coarse grid: 16*104*36 grid
  Fine grid: 32*208*72 grid
  Total Charge: 0.000000

Density mixing:
  Method: separate
  Backend: pulay
  Linear mixing parameter: 0.05
  Mixing with 5 old densities
  Damping of long wave oscillations: 50

Hamiltonian:
  XC and Coulomb potentials evaluated on a 32*208*72 grid
  Using the PBE Exchange-Correlation functional
  Interpolation: tri-quintic (5. degree polynomial)
  Poisson solver: Jacobi solver with 4 multi-grid levels
    Coarsest grid: 4 x 26 x 9 points
    Warning: Coarse grid has more than 24 points.
             More multi-grid levels recommended.
    Stencil: 6*3+1=19 point O(h^6) finite-difference Laplacian
    Max iterations: 1000
    Tolerance: 2.000000e-10

Total number of cores used: 1

Number of atoms: 36
Number of atomic orbitals: 204
Number of bands in calculation: 204
Bands to converge: occupied states only
Number of valence electrons: 262

... initialized

Initializing position-dependent things.

Density initialized from atomic densities
Creating initial wave functions:
  204 bands from LCAO basis set

             /|  F    |
          / F |       |
         /    |  F    |
        /   Fe|       |
       /  FFe |F      |
      / O     Fe------.
     /      F/       /
    /  Fe F F   Fe  /
   / F Fe  F   F   /
  /F  F   Fe      /
 *     F Fe  F   /
 |   F  F       /
 F Fe  /       /
 |    F   F   /
 | F Fe      /
 O  /   F   /
 Fe------*

Positions:
   0 Fe     0.000000    3.425973    3.419936    ( 0.0000,  0.0000,  0.0000)
   1 Fe     0.000000   17.123411    3.429806    ( 0.0000,  0.0000,  0.0000)
   2 Fe     0.000000   13.700665    0.009488    ( 0.0000,  0.0000,  0.0000)
   3 Fe     0.000000    6.848719    0.009488    ( 0.0000,  0.0000,  0.0000)
   4 Fe     1.640865    3.411629   -0.027693    ( 0.0000,  0.0000,  0.0000)
   5 Fe     1.622395   16.986244    0.000027    ( 0.0000,  0.0000,  0.0000)
   6 Fe     1.640865   13.686321    3.410475    ( 0.0000,  0.0000,  0.0000)
   7 Fe     1.640865    6.863063    3.410475    ( 0.0000,  0.0000,  0.0000)
   8 Fe     0.000000    0.000000    0.082956    ( 0.0000,  0.0000,  0.0000)
   9 Fe     0.000000   10.274692    3.493404    ( 0.0000,  0.0000,  0.0000)
  10 Fe     1.640865    0.000000    3.222191    ( 0.0000,  0.0000,  0.0000)
  11 Fe     1.640865   10.274692    6.632639    ( 0.0000,  0.0000,  0.0000)
  12 O      0.007597    0.000000    2.144231    ( 0.0000,  0.0000,  0.0000)
  13 O      0.000000   10.426778    5.554679    ( 0.0000,  0.0000,  0.0000)
  14 F      0.000000    3.455769    1.386681    ( 0.0000,  0.0000,  0.0000)
  15 F      0.000000   17.093615    1.386681    ( 0.0000,  0.0000,  0.0000)
  16 F      0.000000   13.730461    4.818670    ( 0.0000,  0.0000,  0.0000)
  17 F      0.000000    6.818923    4.797129    ( 0.0000,  0.0000,  0.0000)
  18 F      0.000000    3.460146    5.452256    ( 0.0000,  0.0000,  0.0000)
  19 F      0.000000   17.089238    5.452256    ( 0.0000,  0.0000,  0.0000)
  20 F      0.000000   13.734838    2.041808    ( 0.0000,  0.0000,  0.0000)
  21 F      0.000000    6.814546    2.041808    ( 0.0000,  0.0000,  0.0000)
  22 F      1.640865    1.405002    6.795911    ( 0.0000,  0.0000,  0.0000)
  23 F      1.640865   19.144382    6.795911    ( 0.0000,  0.0000,  0.0000)
  24 F      1.667401   11.679694    3.385463    ( 0.0000,  0.0000,  0.0000)
  25 F      1.640865    8.869690    3.385463    ( 0.0000,  0.0000,  0.0000)
  26 F      1.640865    2.017621    3.449184    ( 0.0000,  0.0000,  0.0000)
  27 F      1.640865   18.531763    3.449184    ( 0.0000,  0.0000,  0.0000)
  28 F      1.640865   12.292313    0.038736    ( 0.0000,  0.0000,  0.0000)
  29 F      1.640865    8.257071    0.038736    ( 0.0000,  0.0000,  0.0000)
  30 F      1.640865    4.809789    3.420850    ( 0.0000,  0.0000,  0.0000)
  31 F      1.640865   15.739595    3.450371    ( 0.0000,  0.0000,  0.0000)
  32 F      1.640865   15.084481    0.010402    ( 0.0000,  0.0000,  0.0000)
  33 F      1.640865    5.464903    0.010402    ( 0.0000,  0.0000,  0.0000)
  34 F      0.000000    0.000000    4.738756    ( 0.0000,  0.0000,  0.0000)
  35 F      0.000000   10.274692    1.328308    ( 0.0000,  0.0000,  0.0000)

Unit cell:
           periodic     x           y           z      points  spacing
  1. axis:    yes    3.281730    0.000000    0.000000    16     0.2051
  2. axis:    yes    0.000000   20.549384    0.000000   104     0.1976
  3. axis:    yes    0.000000    0.000000    6.820896    36     0.1895

  Lengths:   3.281730  20.549384   6.820896
  Angles:   90.000000  90.000000  90.000000

Effective grid spacing dv^(1/3) = 0.1973

                     log10-error:    total        iterations:
           time      wfs    density  energy       fermi  poisson
iter:   1  05:13:43  +1.74   +inf  -211.660600    3      25
iter:   2  05:13:52  +0.20   +inf  -212.525578    3
iter:   3  05:14:01  -0.38   +inf  -212.773137    2
iter:   4  05:14:14  -0.64  -1.12  -210.576835    3      27
iter:   5  05:14:28  -0.29  -1.16  -244.410933    36     56
iter:   6  05:14:43  -0.31  -1.07  -272.931939    5      64
iter:   7  05:14:58  -0.29  -1.03  -242.537233    3      63
iter:   8  05:15:12  -0.39  -1.17  -233.583119    3      62
iter:   9  05:15:27  -0.49  -1.18  -229.520117    35     63
iter:  10  05:15:41  -0.57  -1.18  -208.465042    3      55
iter:  11  05:15:54  -1.09  -1.35  -205.954086    2      39
iter:  12  05:16:09  -1.34  -1.41  -219.910852    4      55
iter:  13  05:16:23  -1.28  -1.21  -205.165085    3      54
iter:  14  05:16:38  -1.55  -1.44  -211.206642    3      49
iter:  15  05:16:52  -1.34  -1.28  -208.741399    2      54
iter:  16  05:17:06  -1.50  -1.35  -205.507211    3      48
iter:  17  05:17:18  -1.63  -1.45  -204.818230    3      27
iter:  18  05:17:31  -1.83  -1.49  -204.873818    4      39
iter:  19  05:17:45  -1.49  -1.51  -213.036215    3      52
iter:  20  05:17:59  -1.39  -1.28  -207.690727    3      54
iter:  21  05:18:13  -1.44  -1.44  -206.294337    3      50
iter:  22  05:18:26  -1.47  -1.52  -208.611117    2      52
iter:  23  05:18:40  -1.45  -1.44  -205.229445    3      43
iter:  24  05:18:53  -1.84  -1.59  -204.471894    3      35
iter:  25  05:19:06  -2.28  -1.61  -206.650182    3      44
iter:  26  05:19:19  -1.88  -1.52  -205.780439    3      49
iter:  27  05:19:33  -1.56  -1.56  -211.149074    4      50
iter:  28  05:19:48  -1.47  -1.39  -209.476026    3      55
iter:  29  05:20:02  -1.43  -1.43  -205.689022    3      45
iter:  30  05:20:14  -1.77  -1.59  -204.618249    3      33
iter:  31  05:20:26  -2.54  -1.66  -204.711544    3      19
iter:  32  05:20:42  -2.56  -1.66  -204.748689    3      39
iter:  33  05:20:59  -1.62  -1.66  -213.854216    3      51
iter:  34  05:21:16  -1.31  -1.35  -212.816342    3      57
iter:  35  05:21:33  -1.42  -1.37  -205.578181    4      49
iter:  36  05:21:49  -1.77  -1.63  -204.945135    3      39
iter:  37  05:22:03  -2.07  -1.68  -204.520853    2      13
iter:  38  05:22:18  -2.82  -1.72  -204.445733    2      28
iter:  39  05:22:35  -1.88  -1.74  -211.056305    3      49
iter:  40  05:22:49  -1.45  -1.41  -211.639940    2      56
iter:  41  05:23:03  -1.51  -1.40  -204.941960    4      49
iter:  42  05:23:15  -2.06  -1.71  -204.668295    2      20
iter:  43  05:23:28  -2.25  -1.76  -205.818709    3      44
iter:  44  05:23:42  -2.15  -1.67  -204.850614    3      46
iter:  45  05:23:56  -2.15  -1.74  -205.792364    3      42
iter:  46  05:24:10  -1.88  -1.68  -207.614475    3      51
iter:  47  05:24:23  -1.65  -1.55  -205.526756    3      48
iter:  48  05:24:36  -1.89  -1.72  -204.693869    2      28
iter:  49  05:24:49  -2.17  -1.80  -204.793230    3      31
iter:  50  05:25:02  -1.98  -1.83  -205.739426    2      40
iter:  51  05:25:17  -2.03  -1.70  -205.664132    3      46
iter:  52  05:25:32  -1.62  -1.71  -219.783345    3      55
iter:  53  05:25:51  -1.36  -1.31  -204.561815    3      54
iter:  54  05:26:09  -2.14  -1.86  -204.533585    2      19
iter:  55  05:26:28  -2.68  -1.88  -204.726241    2      25
iter:  56  05:26:43  -2.56  -1.85  -204.876106    2      28
iter:  57  05:26:58  -2.51  -1.83  -205.468569    2      42
iter:  58  05:27:17  -1.78  -1.75  -214.021102    3      53
iter:  59  05:27:39  -1.48  -1.38  -204.508230    3      51
iter:  60  05:28:00  -2.20  -1.91  -204.770528    2      34
iter:  61  05:28:21  -2.66  -1.86  -204.578329    2      24
iter:  62  05:28:37  -3.26  -1.90  -204.572654    2      7
iter:  63  05:28:55  -2.69  -1.91  -205.189566    3      38
[...]
iter: 203  06:00:59  -6.16  -3.98  -204.306415    2      3
iter: 204  06:01:15  -6.88  -4.14  -204.306293    2      2
iter: 205  06:01:32  -6.38  -4.24  -204.306728    2      3
iter: 206  06:01:46  -6.42  -4.08  -204.306513    2      3
iter: 207  06:02:00  -6.54  -4.05  -204.306717    2      2
iter: 208  06:02:14  -7.30  -4.11  -204.306627    1      1
iter: 209  06:02:30  -7.36  -4.14  -204.306601    2      2
iter: 210  06:02:46  -5.93  -4.19  -204.306311    2      6
iter: 211  06:03:02  -5.92  -3.74  -204.306293    1      3
iter: 212  06:03:18  -6.99  -3.93  -204.306360    1      2
iter: 213  06:03:33  -7.30  -4.03  -204.306297    2      1
iter: 214  06:03:49  -6.65  -4.09  -204.306487    2      4
iter: 215  06:04:04  -6.92  -4.12  -204.306522    1      2
iter: 216  06:04:20  -7.21  -4.07  -204.306586    1      2
iter: 217  06:04:37  -7.43  -4.07  -204.306635    1      1

Converged after 217 iterations.

Dipole moment: (-25.727347, -31.242443, -29.583005) |e|*Ang

Energy contributions relative to reference atoms: (reference = -479224.937077)

Kinetic:       +163.329821
Potential:     -167.117982
External:        +0.000000
XC:            -209.517479
Entropy (-ST):   -1.441235
Local:           +9.719623
Free energy:   -205.027252
Extrapolated:  -204.306635

Fermi level: 3.67257

 Band  Eigenvalues  Occupancy
    0    -21.10899    2.00000
    1    -20.85776    2.00000
    2    -20.72588    2.00000
    3    -20.71542    2.00000
    4    -20.67236    2.00000
    5    -20.51241    2.00000
    6    -20.46301    2.00000
    7    -20.42713    2.00000
    8    -20.41161    2.00000
    9    -20.40695    2.00000
   10    -20.40124    2.00000
   11    -20.38670    2.00000
   12    -20.36784    2.00000
   13    -20.33649    2.00000
   14    -20.28821    2.00000
   15    -20.28009    2.00000
   16    -20.26453    2.00000
   17    -20.23740    2.00000
   18    -20.21011    2.00000
   19    -19.89488    2.00000
   20    -19.07060    2.00000
   21    -19.04899    2.00000
   22    -14.54314    2.00000
   23    -14.52770    2.00000
   24     -4.38457    2.00000
   25     -4.25955    2.00000
   26     -4.04044    2.00000
   27     -3.97733    2.00000
   28     -3.89293    2.00000
   29     -3.67403    2.00000
   30     -3.55198    2.00000
   31     -3.41943    2.00000
   32     -3.39354    2.00000
   33     -3.26824    2.00000
   34     -2.91115    2.00000
   35     -2.78353    2.00000
   36     -2.75456    2.00000
   37     -2.72745    2.00000
   38     -2.64087    2.00000
   39     -2.54487    2.00000
   40     -2.54004    2.00000
   41     -2.51148    2.00000
   42     -2.46906    2.00000
   43     -2.46797    2.00000
   44     -2.45498    2.00000
   45     -2.44208    2.00000
   46     -2.40492    2.00000
   47     -2.36667    2.00000
   48     -2.36280    2.00000
   49     -2.35627    2.00000
   50     -2.32822    2.00000
   51     -2.32336    2.00000
   52     -2.30204    2.00000
   53     -2.28956    2.00000
   54     -2.27166    2.00000
   55     -2.23506    2.00000
   56     -2.21888    2.00000
   57     -2.20285    2.00000
   58     -2.17741    2.00000
   59     -2.12198    2.00000
[...]
  189     15.99452    0.00000
  190     16.25171    0.00000
  191     16.28460    0.00000
  192     16.29298    0.00000
  193     16.63391    0.00000
  194     16.70549    0.00000
  195     16.71784    0.00000
  196     16.77741    0.00000
  197     16.79220    0.00000
  198     16.87852    0.00000
  199     16.89455    0.00000
  200     17.10752    0.00000
  201     17.18541    0.00000
  202     17.26604    0.00000
  203     17.37608    0.00000