User:   murakami@tssm1.eng.shizuoka.ac.jp
Date:   Fri Mar 29 21:40:18 2019
Arch:   x86_64
Pid:    31289
Python: 3.6.5
gpaw:   /home/murakami/.local/lib/python3.6/site-packages/gpaw
_gpaw:  /home/murakami/.local/lib/python3.6/site-packages/
        _gpaw.cpython-36m-x86_64-linux-gnu.so
ase:    /home/murakami/.local/lib/python3.6/site-packages/ase (version 3.16.2)
numpy:  /home/murakami/.local/lib/python3.6/site-packages/numpy (version 1.15.2)
scipy:  /home/murakami/.local/lib/python3.6/site-packages/scipy (version 1.1.0)
units:  Angstrom and eV
cores:  1

Input parameters:
  kpts: {size: (1, 1, 1)}
  maxiter: 300
  xc: PBE

System changes: positions, numbers, cell, pbc, initial_charges, initial_magmoms

Initialize ...

Fe-setup:
  name: Iron
  id: 37abbd8d6c3c35915a9b583b742da910
  Z: 26
  valence: 8
  core: 18
  charge: 0.0
  file: /home/murakami/Public/gpaw-setups-0.9.20000/Fe.PBE.gz
  cutoffs: 1.06(comp), 2.06(filt), 2.67(core), lmax=2
  valence states:
                energy  radius
    4s(2.00)    -5.291   1.164
    4p(0.00)    -1.326   1.058
    3d(6.00)    -7.505   1.058
    *s          21.920   1.164
    *p          25.885   1.058
    *d          19.706   1.058

  Using partial waves for Fe as LCAO basis

O-setup:
  name: Oxygen
  id: 32ecd46bf208036f09c70b0ec9a88b78
  Z: 8
  valence: 6
  core: 2
  charge: 0.0
  file: /home/murakami/Public/gpaw-setups-0.9.20000/O.PBE.gz
  cutoffs: 0.67(comp), 1.17(filt), 0.83(core), lmax=2
  valence states:
                energy  radius
    2s(2.00)   -23.961   0.688
    2p(4.00)    -9.029   0.598
    *s           3.251   0.688
    *p          18.182   0.598
    *d           0.000   0.619

[...]

F-setup:
  name: Fluorine
  id: 9cd46ba2a61e170ad72278be75b55cc0
  Z: 9
  valence: 7
  core: 2
  charge: 0.0
  file: /home/murakami/Public/gpaw-setups-0.9.20000/F.PBE.gz
  cutoffs: 0.64(comp), 1.14(filt), 0.74(core), lmax=2
  valence states:
                energy  radius
    2s(2.00)   -29.898   0.635
    2p(5.00)   -11.110   0.635
    *s          -2.687   0.635
    *p          16.102   0.635
    *d           0.000   0.635

  Using partial waves for F as LCAO basis

Reference energy: -479224.937077

Spin-paired calculation

Occupation numbers:
  Fermi-Dirac: width=0.1000 eV

Convergence criteria:
  Maximum total energy change: 0.0005 eV / electron
  Maximum integral of absolute density change: 0.0001 electrons
  Maximum integral of absolute eigenstate change: 4e-08 eV^2
  Maximum number of iterations: 300

Symmetries present (total): 1

  ( 1  0  0)
  ( 0  1  0)
  ( 0  0  1)

1 k-point (Gamma)
1 k-point in the irreducible part of the Brillouin zone
       k-points in crystal coordinates                weights
   0:     0.00000000    0.00000000    0.00000000          1/1

Eigensolver
   Davidson(niter=1, smin=None, normalize=True)

Densities:
  Coarse grid: 16*104*32 grid
  Fine grid: 32*208*64 grid
  Total Charge: 0.000000

Density mixing:
  Method: separate
  Backend: pulay
  Linear mixing parameter: 0.05
  Mixing with 5 old densities
  Damping of long wave oscillations: 50

Hamiltonian:
  XC and Coulomb potentials evaluated on a 32*208*64 grid
  Using the PBE Exchange-Correlation functional
  Interpolation: tri-quintic (5. degree polynomial)
  Poisson solver: Jacobi solver with 5 multi-grid levels
    Coarsest grid: 2 x 13 x 4 points
    Stencil: 8*3+1=25 point O(h^6) finite-difference Laplacian
    Max iterations: 1000
    Tolerance: 2.000000e-10

Total number of cores used: 1

Number of atoms: 36
Number of atomic orbitals: 204
Number of bands in calculation: 204
Bands to converge: occupied states only
Number of valence electrons: 262

... initialized

Initializing position-dependent things.

Density initialized from atomic densities
Creating initial wave functions:
  204 bands from LCAO basis set

                       F

[...]

                      F
                FFee
             O       F
                  F Fe
                  F
           F Fe F     Fe
            F    F  F
         F     Fee
             FF    F
         FeF
       F    F   F
           Fe
         F     F
       O     Fe

       Fe

Positions:
   0 Fe    -0.030962    3.404380    3.405553    ( 0.0000,  0.0000,  0.0000)
   1 Fe     0.000000   17.101818    3.405553    ( 0.0000,  0.0000,  0.0000)
   2 Fe     0.029092   13.700605    0.009448    ( 0.0000,  0.0000,  0.0000)
   3 Fe     0.000000    6.848659    0.009448    ( 0.0000,  0.0000,  0.0000)
   4 Fe     1.634410    3.411629    0.000027    ( 0.0000,  0.0000,  0.0000)
   5 Fe     1.634410   17.137586    0.026673    ( 0.0000,  0.0000,  0.0000)
   6 Fe     1.634410   13.664788    3.396133    ( 0.0000,  0.0000,  0.0000)
   7 Fe     1.634410    6.841120    3.460727    ( 0.0000,  0.0000,  0.0000)
   8 Fe     0.000000   -0.000524    0.082607    ( 0.0000,  0.0000,  0.0000)
   9 Fe     0.000000   10.252635    3.478712    ( 0.0000,  0.0000,  0.0000)
  10 Fe     1.605863   -0.020344    3.208640    ( 0.0000,  0.0000,  0.0000)
  11 Fe     1.634410   10.232815    6.604746    ( 0.0000,  0.0000,  0.0000)
  12 O      0.000000   -0.013538    2.135213    ( 0.0000,  0.0000,  0.0000)
  13 O      0.000000   10.239621    5.531319    ( 0.0000,  0.0000,  0.0000)
  14 F      0.000000    3.447336    1.330132    ( 0.0000,  0.0000,  0.0000)
  15 F      0.000000   17.084859    1.380850    ( 0.0000,  0.0000,  0.0000)
  16 F      0.000000   13.700361    4.747307    ( 0.0000,  0.0000,  0.0000)
  17 F      0.000000    6.788404    4.813287    ( 0.0000,  0.0000,  0.0000)
  18 F      0.000000    3.425747    5.425360    ( 0.0000,  0.0000,  0.0000)
  19 F      0.000000   17.054813    5.429327    ( 0.0000,  0.0000,  0.0000)
  20 F      0.000000   13.721947    2.033221    ( 0.0000,  0.0000,  0.0000)
  21 F      0.000000    6.801654    2.033221    ( 0.0000,  0.0000,  0.0000)
  22 F      1.634410    1.227167    6.767331    ( 0.0000,  0.0000,  0.0000)
  23 F      1.634410   19.101473    6.767331    ( 0.0000,  0.0000,  0.0000)
  24 F      1.634410   11.658319    3.371226    ( 0.0000,  0.0000,  0.0000)
  25 F      1.634410    8.848314    3.371226    ( 0.0000,  0.0000,  0.0000)
  26 F      1.634410    1.995843    3.434678    ( 0.0000,  0.0000,  0.0000)
  27 F      1.634410   18.509986    3.434678    ( 0.0000,  0.0000,  0.0000)
  28 F      1.634410   12.292068    0.038573    ( 0.0000,  0.0000,  0.0000)
  29 F      1.634410    8.256827    0.038573    ( 0.0000,  0.0000,  0.0000)
  30 F      1.634410    4.788190    3.406464    ( 0.0000,  0.0000,  0.0000)
  31 F      1.634410   15.717997    3.406464    ( 0.0000,  0.0000,  0.0000)
  32 F      1.634410   15.084415    0.010358    ( 0.0000,  0.0000,  0.0000)
  33 F      1.634410    5.464838    0.010358    ( 0.0000,  0.0000,  0.0000)
  34 F      0.000000   -0.029920    4.718827    ( 0.0000,  0.0000,  0.0000)
  35 F      0.000000   10.266305    1.322722    ( 0.0000,  0.0000,  0.0000)

Unit cell:
           periodic     x           y           z      points  spacing
  1. axis:    yes    3.268819    0.000000    0.000000    16     0.2043
  2. axis:    yes    0.000000   20.549384    0.000000   104     0.1976
  3. axis:    yes    0.000000   -0.043066    6.792211    32     0.2123

  Lengths:   3.268819  20.549384   6.792348
  Angles:   90.363279  90.000000  90.000000

Effective grid spacing dv^(1/3) = 0.2046

                     log10-error:    total        iterations:
           time      wfs    density  energy       fermi  poisson
iter:   1  21:40:43  +1.74   +inf  -213.606422    3      19
iter:   2  21:40:51  +0.19   +inf  -214.492503    3
iter:   3  21:41:00  -0.38   +inf  -214.747366    2
iter:   4  21:41:11  -0.65  -1.12  -212.376089    3      9
iter:   5  21:41:22  -0.26  -1.16  -248.156023    34     13
iter:   6  21:41:33  -0.28  -1.05  -290.255234    3      16
iter:   7  21:41:44  -0.35  -1.06  -217.320304    4      15
iter:   8  21:41:56  -0.54  -1.30  -210.562929    3      9
iter:   9  21:42:07  -0.80  -1.36  -216.846127    3      12
iter:  10  21:42:18  -0.72  -1.32  -223.500618    4      14
iter:  11  21:42:29  -1.08  -1.19  -207.811531    3      14
iter:  12  21:42:40  -1.54  -1.42  -207.089050    3      8
iter:  13  21:42:51  -1.78  -1.45  -207.036576    3      9
iter:  14  21:43:02  -1.67  -1.46  -216.947472    4      13
iter:  15  21:43:14  -1.38  -1.26  -208.693796    3      13
iter:  16  21:43:25  -1.26  -1.45  -212.777854    4      13
iter:  17  21:43:37  -1.15  -1.39  -207.922710    4      13
iter:  18  21:43:48  -1.42  -1.49  -206.856622    4      10
iter:  19  21:43:59  -1.65  -1.59  -206.654360    3      10
iter:  20  21:44:10  -2.08  -1.57  -208.428198    3      10
iter:  21  21:44:21  -1.77  -1.50  -208.923806    2      12
iter:  22  21:44:32  -1.53  -1.48  -209.507457    3      12
iter:  23  21:44:43  -1.82  -1.48  -206.628139    2      11
iter:  24  21:44:54  -2.08  -1.63  -206.526048    3      8
iter:  25  21:45:05  -1.83  -1.67  -207.277133    3      10
iter:  26  21:45:16  -2.01  -1.59  -206.862641    3      11
iter:  27  21:45:27  -1.92  -1.65  -209.199515    3      12
iter:  28  21:45:38  -1.68  -1.52  -208.347626    2      12
iter:  29  21:45:49  -1.72  -1.58  -207.702604    3      12
iter:  30  21:46:00  -1.89  -1.62  -206.498940    3      11
iter:  31  21:46:11  -2.25  -1.72  -206.949885    3      10
iter:  32  21:46:21  -2.42  -1.69  -206.197721    3      10
iter:  33  21:46:34  -2.21  -1.75  -208.490583    3      11
iter:  34  21:46:48  -1.87  -1.58  -208.158791    3      12
iter:  35  21:47:02  -1.94  -1.61  -207.130787    3      11
iter:  36  21:47:19  -1.99  -1.69  -206.594089    3      10
iter:  37  21:47:35  -1.96  -1.76  -208.861233    3      11
iter:  38  21:47:51  -1.74  -1.61  -206.470426    3      11
iter:  39  21:48:09  -2.22  -1.78  -207.968398    3      10
iter:  40  21:48:24  -1.98  -1.64  -207.234648    3      11
iter:  41  21:48:39  -2.12  -1.72  -207.077905    3      11
iter:  42  21:48:54  -2.03  -1.75  -206.720756    3      10
iter:  43  21:49:07  -2.12  -1.81  -206.700247    3      10
iter:  44  21:49:21  -1.96  -1.89  -206.536765    3      8
iter:  45  21:49:34  -1.85  -1.86  -210.258261    3      12
iter:  46  21:49:46  -1.81  -1.56  -206.495301    3      12
iter:  47  21:50:00  -2.31  -1.93  -206.454086    3      7
iter:  48  21:50:13  -2.29  -1.97  -206.725270    3      9
iter:  49  21:50:26  -2.61  -1.88  -206.553222    2      9
iter:  50  21:50:41  -2.45  -1.97  -206.710354    3      10
iter:  51  21:50:54  -1.96  -1.93  -209.381437    3      11
iter:  52  21:51:07  -1.72  -1.65  -206.640164    3      12
iter:  53  21:51:22  -2.29  -1.94  -206.563078    2      8
iter:  54  21:51:37  -2.67  -1.99  -206.433829    2      6
iter:  55  21:51:53  -3.10  -2.04  -206.350739    2      6
iter:  56  21:52:09  -3.31  -2.09  -206.403027    2      8
iter:  57  21:52:23  -2.65  -2.05  -206.400646    3      9
iter:  58  21:52:37  -2.31  -2.12  -206.595439    3      8
iter:  59  21:52:50  -2.64  -2.06  -206.284271    2      9
iter:  60  21:53:06  -2.77  -2.18  -206.275868    2      6
iter:  61  21:53:22  -2.61  -2.22  -206.586514    2      9
iter:  62  21:53:39  -2.81  -2.04  -206.258114    2      9
iter:  63  21:53:55  -3.25  -2.23  -206.302869    3      7
[...]
iter: 107  22:03:27  -5.85  -3.78  -206.180579    2      3
iter: 108  22:03:38  -6.01  -4.10  -206.180431    2      3
iter: 109  22:03:49  -5.78  -3.95  -206.180906    2      3
iter: 110  22:04:00  -5.83  -3.87  -206.180434    2      3
iter: 111  22:04:11  -6.75  -4.18  -206.180548    2      2
iter: 112  22:04:21  -6.45  -4.28  -206.180355    1      3
iter: 113  22:04:32  -6.44  -3.97  -206.180732    2      2
iter: 114  22:04:43  -7.17  -4.20  -206.180568    1      1
iter: 115  22:04:54  -7.08  -4.28  -206.180699    2      2
iter: 116  22:05:05  -6.89  -4.28  -206.180439    1      2
iter: 117  22:05:16  -7.11  -4.17  -206.180580    2      2
iter: 118  22:05:26  -7.38  -4.31  -206.180536    1      2
iter: 119  22:05:37  -7.05  -4.30  -206.180690    2      2
iter: 120  22:05:48  -7.00  -4.17  -206.180742    2      2
iter: 121  22:05:59  -7.57  -4.31  -206.180544    2      1

Converged after 121 iterations.

Dipole moment: (-25.249237, -30.867273, -34.866181) |e|*Ang

Energy contributions relative to reference atoms: (reference = -479224.937077)

Kinetic:       +173.180414
Potential:     -178.191646
External:        +0.000000
XC:            -211.799241
Entropy (-ST):   -1.415389
Local:          +11.337624
Free energy:   -206.888239
Extrapolated:  -206.180544

Fermi level: 3.78367

 Band  Eigenvalues  Occupancy
    0    -20.84443    2.00000
    1    -20.79794    2.00000
    2    -20.72375    2.00000
    3    -20.65373    2.00000
    4    -20.53004    2.00000
    5    -20.43295    2.00000
    6    -20.42287    2.00000
    7    -20.39690    2.00000
    8    -20.38876    2.00000
    9    -20.36311    2.00000
   10    -20.35391    2.00000
   11    -20.33764    2.00000
   12    -20.28087    2.00000
   13    -20.23966    2.00000
   14    -20.22318    2.00000
   15    -20.20816    2.00000
   16    -20.19902    2.00000
   17    -20.17977    2.00000
   18    -20.16346    2.00000
   19    -20.12412    2.00000
   20    -19.03072    2.00000
   21    -19.02555    2.00000
   22    -14.51288    2.00000
   23    -14.50984    2.00000
   24     -4.30012    2.00000
   25     -4.20789    2.00000
   26     -4.05201    2.00000
   27     -3.97170    2.00000
   28     -3.75205    2.00000
   29     -3.59432    2.00000
   30     -3.50311    2.00000
   31     -3.47078    2.00000
   32     -3.35444    2.00000
   33     -3.17767    2.00000
   34     -2.74292    2.00000
   35     -2.70840    2.00000
   36     -2.64488    2.00000
   37     -2.58474    2.00000
   38     -2.52453    2.00000
   39     -2.52235    2.00000
   40     -2.49977    2.00000
   41     -2.48878    2.00000
   42     -2.46477    2.00000
   43     -2.45042    2.00000
   44     -2.44135    2.00000
   45     -2.40648    2.00000
   46     -2.34995    2.00000
   47     -2.33796    2.00000
   48     -2.32961    2.00000
   49     -2.32398    2.00000
   50     -2.31674    2.00000
   51     -2.27343    2.00000
   52     -2.24623    2.00000
   53     -2.23547    2.00000
   54     -2.21126    2.00000
   55     -2.20293    2.00000
   56     -2.19211    2.00000
   57     -2.19002    2.00000
   58     -2.16760    2.00000
   59     -2.13566    2.00000
[...]
  189     16.20266    0.00000
  190     16.35875    0.00000
  191     16.39802    0.00000
  192     16.43348    0.00000
  193     16.75845    0.00000
  194     16.79031    0.00000
  195     16.84074    0.00000
  196     16.85193    0.00000
  197     16.87363    0.00000
  198     17.03776    0.00000
  199     17.11133    0.00000
  200     17.28225    0.00000
  201     17.29889    0.00000
  202     17.36677    0.00000
  203     17.46629    0.00000