User:   murakami@tssm1.eng.shizuoka.ac.jp
Date:   Fri Mar 29 21:08:48 2019
Arch:   x86_64
Pid:    31289
Python: 3.6.5
gpaw:   /home/murakami/.local/lib/python3.6/site-packages/gpaw
_gpaw:  /home/murakami/.local/lib/python3.6/site-packages/
        _gpaw.cpython-36m-x86_64-linux-gnu.so
ase:    /home/murakami/.local/lib/python3.6/site-packages/ase (version 3.16.2)
numpy:  /home/murakami/.local/lib/python3.6/site-packages/numpy (version 1.15.2)
scipy:  /home/murakami/.local/lib/python3.6/site-packages/scipy (version 1.1.0)
units:  Angstrom and eV
cores:  1

Input parameters:
  kpts: {size: (1, 1, 1)}
  maxiter: 300
  xc: PBE

System changes: positions, numbers, cell, pbc, initial_charges, initial_magmoms

Initialize ...

Fe-setup:
  name: Iron
  id: 37abbd8d6c3c35915a9b583b742da910
  Z: 26
  valence: 8
  core: 18
  charge: 0.0
  file: /home/murakami/Public/gpaw-setups-0.9.20000/Fe.PBE.gz
  cutoffs: 1.06(comp), 2.06(filt), 2.67(core), lmax=2
  valence states:
                energy  radius
    4s(2.00)    -5.291   1.164
    4p(0.00)    -1.326   1.058
    3d(6.00)    -7.505   1.058
    *s          21.920   1.164
    *p          25.885   1.058
    *d          19.706   1.058

  Using partial waves for Fe as LCAO basis

O-setup:
  name: Oxygen
  id: 32ecd46bf208036f09c70b0ec9a88b78
  Z: 8
  valence: 6
  core: 2
  charge: 0.0
  file: /home/murakami/Public/gpaw-setups-0.9.20000/O.PBE.gz
  cutoffs: 0.67(comp), 1.17(filt), 0.83(core), lmax=2
  valence states:
                energy  radius
    2s(2.00)   -23.961   0.688
    2p(4.00)    -9.029   0.598
    *s           3.251   0.688
    *p          18.182   0.598
    *d           0.000   0.619

[...]

F-setup:
  name: Fluorine
  id: 9cd46ba2a61e170ad72278be75b55cc0
  Z: 9
  valence: 7
  core: 2
  charge: 0.0
  file: /home/murakami/Public/gpaw-setups-0.9.20000/F.PBE.gz
  cutoffs: 0.64(comp), 1.14(filt), 0.74(core), lmax=2
  valence states:
                energy  radius
    2s(2.00)   -29.898   0.635
    2p(5.00)   -11.110   0.635
    *s          -2.687   0.635
    *p          16.102   0.635
    *d           0.000   0.635

  Using partial waves for F as LCAO basis

Reference energy: -479224.937077

Spin-paired calculation

Occupation numbers:
  Fermi-Dirac: width=0.1000 eV

Convergence criteria:
  Maximum total energy change: 0.0005 eV / electron
  Maximum integral of absolute density change: 0.0001 electrons
  Maximum integral of absolute eigenstate change: 4e-08 eV^2
  Maximum number of iterations: 300

Symmetries present (total): 1

  ( 1  0  0)
  ( 0  1  0)
  ( 0  0  1)

1 k-point (Gamma)
1 k-point in the irreducible part of the Brillouin zone
       k-points in crystal coordinates                weights
   0:     0.00000000    0.00000000    0.00000000          1/1

Eigensolver
   Davidson(niter=1, smin=None, normalize=True)

Densities:
  Coarse grid: 16*104*32 grid
  Fine grid: 32*208*64 grid
  Total Charge: 0.000000

Density mixing:
  Method: separate
  Backend: pulay
  Linear mixing parameter: 0.05
  Mixing with 5 old densities
  Damping of long wave oscillations: 50

Hamiltonian:
  XC and Coulomb potentials evaluated on a 32*208*64 grid
  Using the PBE Exchange-Correlation functional
  Interpolation: tri-quintic (5. degree polynomial)
  Poisson solver: Jacobi solver with 5 multi-grid levels
    Coarsest grid: 2 x 13 x 4 points
    Stencil: 8*3+1=25 point O(h^6) finite-difference Laplacian
    Max iterations: 1000
    Tolerance: 2.000000e-10

Total number of cores used: 1

Number of atoms: 36
Number of atomic orbitals: 204
Number of bands in calculation: 204
Bands to converge: occupied states only
Number of valence electrons: 262

... initialized

Initializing position-dependent things.

Density initialized from atomic densities
Creating initial wave functions:
  204 bands from LCAO basis set

                       F

[...]

                      F
                F Fe
                     F
             O    F Fe
                  F
             Fe F     Fe
           FF    F  F
         F     Fe
             FF    F
         FeF
       F    F   F
           Fe
         F Fe F
       O     Fe

       Fe

Positions:
   0 Fe     0.030418    3.425973    3.399576    ( 0.0000,  0.0000,  0.0000)
   1 Fe     0.030418   17.123411    3.399576    ( 0.0000,  0.0000,  0.0000)
   2 Fe     0.000084   13.700665    0.009431    ( 0.0000,  0.0000,  0.0000)
   3 Fe     0.000084    6.848719    0.009431    ( 0.0000,  0.0000,  0.0000)
   4 Fe     1.626314    3.411629    0.000027    ( 0.0000,  0.0000,  0.0000)
   5 Fe     1.626314   17.137755    0.000027    ( 0.0000,  0.0000,  0.0000)
   6 Fe     1.657179   13.686321    3.358251    ( 0.0000,  0.0000,  0.0000)
   7 Fe     1.656648    6.863063    3.390172    ( 0.0000,  0.0000,  0.0000)
   8 Fe     0.000631    0.000000    0.070562    ( 0.0000,  0.0000,  0.0000)
   9 Fe     0.031072   10.274692    3.472607    ( 0.0000,  0.0000,  0.0000)
  10 Fe     1.654648    0.000000    3.166612    ( 0.0000,  0.0000,  0.0000)
  11 Fe     1.685308   10.265753    6.593154    ( 0.0000,  0.0000,  0.0000)
  12 O      0.018727    0.000000    2.092994    ( 0.0000,  0.0000,  0.0000)
  13 O      0.049406   10.274692    5.521611    ( 0.0000,  0.0000,  0.0000)
  14 F      0.012515    3.455769    1.398665    ( 0.0000,  0.0000,  0.0000)
  15 F      0.012334   17.093615    1.378426    ( 0.0000,  0.0000,  0.0000)
  16 F      0.042668   13.730461    4.768571    ( 0.0000,  0.0000,  0.0000)
  17 F      0.042668    6.818923    4.768571    ( 0.0000,  0.0000,  0.0000)
  18 F      0.048495    3.460146    5.419798    ( 0.0000,  0.0000,  0.0000)
  19 F      0.048495   17.089238    5.419798    ( 0.0000,  0.0000,  0.0000)
  20 F      0.018161   13.734838    2.029653    ( 0.0000,  0.0000,  0.0000)
  21 F      0.018161    6.814546    2.029653    ( 0.0000,  0.0000,  0.0000)
  22 F      1.686760    1.405002    6.755454    ( 0.0000,  0.0000,  0.0000)
  23 F      1.687224   19.074062    6.807337    ( 0.0000,  0.0000,  0.0000)
  24 F      1.656426   11.679694    3.365309    ( 0.0000,  0.0000,  0.0000)
  25 F      1.656426    8.869690    3.365309    ( 0.0000,  0.0000,  0.0000)
  26 F      1.656993    2.017621    3.428650    ( 0.0000,  0.0000,  0.0000)
  27 F      1.656993   18.531763    3.428650    ( 0.0000,  0.0000,  0.0000)
  28 F      1.624450   12.292313    0.038505    ( 0.0000,  0.0000,  0.0000)
  29 F      1.626659    8.330659    0.038505    ( 0.0000,  0.0000,  0.0000)
  30 F      1.656232    4.809789    3.343673    ( 0.0000,  0.0000,  0.0000)
  31 F      1.656741   15.739595    3.400485    ( 0.0000,  0.0000,  0.0000)
  32 F      1.626407   15.084481    0.010340    ( 0.0000,  0.0000,  0.0000)
  33 F      1.626407    5.536662    0.010340    ( 0.0000,  0.0000,  0.0000)
  34 F      0.042149    0.000000    4.710545    ( 0.0000,  0.0000,  0.0000)
  35 F      0.027037   10.274692    1.320400    ( 0.0000,  0.0000,  0.0000)

Unit cell:
           periodic     x           y           z      points  spacing
  1. axis:    yes    3.252628    0.000000    0.000000    16     0.2033
  2. axis:    yes    0.000000   20.549384    0.000000   104     0.1976
  3. axis:    yes    0.060668    0.000000    6.780290    32     0.2119

  Lengths:   3.252628  20.549384   6.780561
  Angles:   90.000000  89.487348  90.000000

Effective grid spacing dv^(1/3) = 0.2042

                     log10-error:    total        iterations:
           time      wfs    density  energy       fermi  poisson
iter:   1  21:09:12  +1.74   +inf  -213.725049    3      19
iter:   2  21:09:21  +0.20   +inf  -214.628142    3
iter:   3  21:09:30  -0.38   +inf  -214.888543    2
iter:   4  21:09:41  -0.64  -1.12  -212.744353    3      9
iter:   5  21:09:52  -0.33  -1.16  -259.932991    35     14
iter:   6  21:10:03  -0.32  -1.02  -278.750466    33     16
iter:   7  21:10:14  -0.34  -1.05  -221.213136    3      15
iter:   8  21:10:26  -0.41  -1.27  -220.265756    3      13
iter:   9  21:10:37  -0.53  -1.26  -267.831561    35     16
iter:  10  21:10:48  -0.52  -1.07  -210.890708    37     14
iter:  11  21:10:59  -0.95  -1.36  -209.095619    3      12
iter:  12  21:11:11  -1.33  -1.38  -214.295663    4      13
iter:  13  21:11:22  -1.36  -1.28  -207.340386    3      13
iter:  14  21:11:34  -1.48  -1.45  -217.688939    4      13
iter:  15  21:11:45  -1.30  -1.27  -208.514043    3      13
iter:  16  21:11:55  -1.66  -1.43  -206.923084    3      10
iter:  17  21:12:06  -1.78  -1.49  -207.697280    3      9
iter:  18  21:12:18  -1.65  -1.47  -207.142428    4      10
iter:  19  21:12:29  -1.28  -1.54  -218.201361    3      13
iter:  20  21:12:41  -1.21  -1.27  -229.631616    3      14
iter:  21  21:12:52  -1.10  -1.18  -209.952638    4      14
iter:  22  21:13:04  -1.35  -1.44  -207.798456    3      12
iter:  23  21:13:15  -1.75  -1.53  -206.595899    3      9
iter:  24  21:13:25  -2.43  -1.60  -206.628591    3      7
iter:  25  21:13:36  -2.09  -1.61  -211.447344    3      11
iter:  26  21:13:47  -1.46  -1.41  -219.363148    3      14
iter:  27  21:13:58  -1.23  -1.26  -221.077426    3      14
iter:  28  21:14:09  -1.31  -1.30  -206.501911    3      13
iter:  29  21:14:20  -1.92  -1.66  -207.257421    2      10
iter:  30  21:14:31  -2.08  -1.62  -206.543092    2      9
iter:  31  21:14:42  -2.23  -1.66  -209.610318    3      11
iter:  32  21:14:53  -1.58  -1.50  -214.033621    3      13
iter:  33  21:15:04  -1.34  -1.35  -221.485514    4      14
iter:  34  21:15:15  -1.40  -1.28  -206.666189    3      13
iter:  35  21:15:26  -2.01  -1.68  -206.712533    2      7
iter:  36  21:15:37  -2.54  -1.69  -206.546160    3      7
iter:  37  21:15:47  -2.49  -1.70  -208.286856    3      10
iter:  38  21:15:59  -1.71  -1.60  -215.525540    4      13
iter:  39  21:16:11  -1.34  -1.34  -224.100792    4      14
iter:  40  21:16:22  -1.26  -1.26  -206.999433    4      13
iter:  41  21:16:32  -1.83  -1.69  -206.560765    2      7
iter:  42  21:16:43  -2.49  -1.75  -206.674030    2      8
iter:  43  21:16:56  -2.84  -1.73  -206.974366    3      7
iter:  44  21:17:09  -2.05  -1.72  -211.561217    3      12
iter:  45  21:17:22  -1.50  -1.46  -218.308662    3      14
iter:  46  21:17:36  -1.48  -1.32  -206.632125    4      13
iter:  47  21:17:49  -2.05  -1.77  -207.094806    3      9
iter:  48  21:18:01  -2.12  -1.74  -206.593281    3      9
iter:  49  21:18:14  -2.74  -1.78  -206.773591    3      8
iter:  50  21:18:26  -1.96  -1.77  -213.964443    3      12
iter:  51  21:18:38  -1.41  -1.40  -220.744141    4      14
iter:  52  21:18:49  -1.40  -1.31  -206.940420    4      13
iter:  53  21:18:59  -2.05  -1.77  -206.453906    3      8
iter:  54  21:19:10  -2.29  -1.87  -208.436792    2      11
iter:  55  21:19:21  -2.08  -1.64  -206.649243    3      10
iter:  56  21:19:33  -1.94  -1.83  -211.692787    3      12
iter:  57  21:19:44  -1.55  -1.50  -212.552725    3      13
iter:  58  21:19:55  -1.61  -1.45  -206.582441    3      12
iter:  59  21:20:06  -2.33  -1.87  -206.570662    2      6
iter:  60  21:20:17  -1.95  -1.88  -210.798139    3      11
iter:  61  21:20:28  -1.84  -1.54  -206.593640    3      12
iter:  62  21:20:39  -1.86  -1.88  -213.244312    3      12
iter:  63  21:20:50  -1.53  -1.46  -212.184264    3      13
[...]
iter: 154  21:37:39  -5.94  -3.90  -206.342559    2      3
iter: 155  21:37:52  -6.31  -3.82  -206.342478    2      3
iter: 156  21:38:04  -6.45  -3.99  -206.342318    1      2
iter: 157  21:38:17  -6.56  -4.10  -206.342346    2      3
iter: 158  21:38:29  -6.20  -4.09  -206.342252    2      3
iter: 159  21:38:41  -6.39  -4.13  -206.342272    2      2
iter: 160  21:38:53  -6.52  -4.27  -206.342504    1      3
iter: 161  21:39:04  -6.61  -4.09  -206.342437    2      3
iter: 162  21:39:15  -6.23  -4.28  -206.342498    2      3
iter: 163  21:39:25  -6.06  -3.99  -206.342307    2      3
iter: 164  21:39:36  -6.47  -3.91  -206.342341    2      3
iter: 165  21:39:46  -6.63  -4.29  -206.342617    1      2
iter: 166  21:39:57  -6.60  -4.44  -206.342467    2      2
iter: 167  21:40:08  -7.15  -4.36  -206.342460    2      2
iter: 168  21:40:18  -7.52  -4.51  -206.342445    1      1

Converged after 168 iterations.

Dipole moment: (-25.808396, -31.005775, -36.762570) |e|*Ang

Energy contributions relative to reference atoms: (reference = -479224.937077)

Kinetic:       +178.069452
Potential:     -181.877740
External:        +0.000000
XC:            -213.115756
Entropy (-ST):   -1.406528
Local:          +11.284862
Free energy:   -207.045709
Extrapolated:  -206.342445

Fermi level: 3.85802

 Band  Eigenvalues  Occupancy
    0    -20.80423    2.00000
    1    -20.78977    2.00000
    2    -20.65398    2.00000
    3    -20.63677    2.00000
    4    -20.46319    2.00000
    5    -20.38258    2.00000
    6    -20.37059    2.00000
    7    -20.34538    2.00000
    8    -20.33894    2.00000
    9    -20.33676    2.00000
   10    -20.32235    2.00000
   11    -20.29522    2.00000
   12    -20.25841    2.00000
   13    -20.20591    2.00000
   14    -20.18548    2.00000
   15    -20.16204    2.00000
   16    -20.15451    2.00000
   17    -20.14215    2.00000
   18    -20.13212    2.00000
   19    -20.10072    2.00000
   20    -18.98709    2.00000
   21    -18.95060    2.00000
   22    -14.56093    2.00000
   23    -14.48172    2.00000
   24     -4.28380    2.00000
   25     -4.19713    2.00000
   26     -4.02818    2.00000
   27     -3.96008    2.00000
   28     -3.70821    2.00000
   29     -3.51420    2.00000
   30     -3.47936    2.00000
   31     -3.42386    2.00000
   32     -3.33334    2.00000
   33     -3.14862    2.00000
   34     -2.73937    2.00000
   35     -2.70952    2.00000
   36     -2.61034    2.00000
   37     -2.56679    2.00000
   38     -2.49997    2.00000
   39     -2.49516    2.00000
   40     -2.46194    2.00000
   41     -2.45133    2.00000
   42     -2.42512    2.00000
   43     -2.39974    2.00000
   44     -2.39436    2.00000
   45     -2.39146    2.00000
   46     -2.36961    2.00000
   47     -2.32433    2.00000
   48     -2.29369    2.00000
   49     -2.28578    2.00000
   50     -2.23331    2.00000
   51     -2.21998    2.00000
   52     -2.21012    2.00000
   53     -2.20114    2.00000
   54     -2.17806    2.00000
   55     -2.16643    2.00000
   56     -2.16420    2.00000
   57     -2.13093    2.00000
   58     -2.12167    2.00000
   59     -2.11806    2.00000
[...]
  189     16.26832    0.00000
  190     16.42152    0.00000
  191     16.45197    0.00000
  192     16.47979    0.00000
  193     16.87913    0.00000
  194     16.91282    0.00000
  195     16.99707    0.00000
  196     17.02376    0.00000
  197     17.06852    0.00000
  198     17.15188    0.00000
  199     17.19357    0.00000
  200     17.36949    0.00000
  201     17.42453    0.00000
  202     17.46795    0.00000
  203     17.57133    0.00000