User:   murakami@tssm1.eng.shizuoka.ac.jp
Date:   Sat Mar 30 08:45:56 2019
Arch:   x86_64
Pid:    31289
Python: 3.6.5
gpaw:   /home/murakami/.local/lib/python3.6/site-packages/gpaw
_gpaw:  /home/murakami/.local/lib/python3.6/site-packages/
        _gpaw.cpython-36m-x86_64-linux-gnu.so
ase:    /home/murakami/.local/lib/python3.6/site-packages/ase (version 3.16.2)
numpy:  /home/murakami/.local/lib/python3.6/site-packages/numpy (version 1.15.2)
scipy:  /home/murakami/.local/lib/python3.6/site-packages/scipy (version 1.1.0)
units:  Angstrom and eV
cores:  1

Input parameters:
  kpts: {size: (1, 1, 1)}
  maxiter: 300
  xc: PBE

System changes: positions, numbers, cell, pbc, initial_charges, initial_magmoms

Initialize ...

Fe-setup:
  name: Iron
  id: 37abbd8d6c3c35915a9b583b742da910
  Z: 26
  valence: 8
  core: 18
  charge: 0.0
  file: /home/murakami/Public/gpaw-setups-0.9.20000/Fe.PBE.gz
  cutoffs: 1.06(comp), 2.06(filt), 2.67(core), lmax=2
  valence states:
                energy  radius
    4s(2.00)    -5.291   1.164
    4p(0.00)    -1.326   1.058
    3d(6.00)    -7.505   1.058
    *s          21.920   1.164
    *p          25.885   1.058
    *d          19.706   1.058

  Using partial waves for Fe as LCAO basis

O-setup:
  name: Oxygen
  id: 32ecd46bf208036f09c70b0ec9a88b78
  Z: 8
  valence: 6
  core: 2
  charge: 0.0
  file: /home/murakami/Public/gpaw-setups-0.9.20000/O.PBE.gz
  cutoffs: 0.67(comp), 1.17(filt), 0.83(core), lmax=2
  valence states:
                energy  radius
    2s(2.00)   -23.961   0.688
    2p(4.00)    -9.029   0.598
    *s           3.251   0.688
    *p          18.182   0.598
    *d           0.000   0.619

[...]

F-setup:
  name: Fluorine
  id: 9cd46ba2a61e170ad72278be75b55cc0
  Z: 9
  valence: 7
  core: 2
  charge: 0.0
  file: /home/murakami/Public/gpaw-setups-0.9.20000/F.PBE.gz
  cutoffs: 0.64(comp), 1.14(filt), 0.74(core), lmax=2
  valence states:
                energy  radius
    2s(2.00)   -29.898   0.635
    2p(5.00)   -11.110   0.635
    *s          -2.687   0.635
    *p          16.102   0.635
    *d           0.000   0.635

  Using partial waves for F as LCAO basis

Reference energy: -479224.937077

Spin-paired calculation

Occupation numbers:
  Fermi-Dirac: width=0.1000 eV

Convergence criteria:
  Maximum total energy change: 0.0005 eV / electron
  Maximum integral of absolute density change: 0.0001 electrons
  Maximum integral of absolute eigenstate change: 4e-08 eV^2
  Maximum number of iterations: 300

Symmetries present (total): 1

  ( 1  0  0)
  ( 0  1  0)
  ( 0  0  1)

1 k-point (Gamma)
1 k-point in the irreducible part of the Brillouin zone
       k-points in crystal coordinates                weights
   0:     0.00000000    0.00000000    0.00000000          1/1

Eigensolver
   Davidson(niter=1, smin=None, normalize=True)

Densities:
  Coarse grid: 16*104*32 grid
  Fine grid: 32*208*64 grid
  Total Charge: 0.000000

Density mixing:
  Method: separate
  Backend: pulay
  Linear mixing parameter: 0.05
  Mixing with 5 old densities
  Damping of long wave oscillations: 50

Hamiltonian:
  XC and Coulomb potentials evaluated on a 32*208*64 grid
  Using the PBE Exchange-Correlation functional
  Interpolation: tri-quintic (5. degree polynomial)
  Poisson solver: Jacobi solver with 5 multi-grid levels
    Coarsest grid: 2 x 13 x 4 points
    Stencil: 6*3+1=19 point O(h^6) finite-difference Laplacian
    Max iterations: 1000
    Tolerance: 2.000000e-10

Total number of cores used: 1

Number of atoms: 36
Number of atomic orbitals: 204
Number of bands in calculation: 204
Bands to converge: occupied states only
Number of valence electrons: 262

... initialized

Initializing position-dependent things.

Density initialized from atomic densities
Creating initial wave functions:
  204 bands from LCAO basis set

             /|  F    |
          /   |     F |
         /    |  F    |
        /   Fe|       |
       /  FFe |F      |
      /O      Fe------.
     /       /      F/
    /  Fe F F   Fe  /
   / F     F   F   /
  /F  F   Fe      /
 *     F Fe  F   /
 |   F  F       /
 F Fe  /       /
 |    F   F   /
 | F Fe      /
 O  /   F   /
 | /   Fe  /

Positions:
   0 Fe     0.000000    3.425973    3.405553    ( 0.0000,  0.0000,  0.0000)
   1 Fe     0.030279   17.123411    3.405553    ( 0.0000,  0.0000,  0.0000)
   2 Fe     0.000000   13.534338    0.009448    ( 0.0000,  0.0000,  0.0000)
   3 Fe     0.000000    6.848719    0.009448    ( 0.0000,  0.0000,  0.0000)
   4 Fe     1.626314    3.411629    0.000027    ( 0.0000,  0.0000,  0.0000)
   5 Fe     1.626314   17.137755    0.000027    ( 0.0000,  0.0000,  0.0000)
   6 Fe     1.626314   13.663840    3.396133    ( 0.0000,  0.0000,  0.0000)
   7 Fe     1.626314    6.863063    3.396133    ( 0.0000,  0.0000,  0.0000)
   8 Fe     0.015961   -0.054620    0.029519    ( 0.0000,  0.0000,  0.0000)
   9 Fe     0.000000   10.274692    3.478712    ( 0.0000,  0.0000,  0.0000)
  10 Fe     1.626314    0.064114    3.222673    ( 0.0000,  0.0000,  0.0000)
  11 Fe     1.626314   10.274692    6.604746    ( 0.0000,  0.0000,  0.0000)
  12 O      0.000000    0.000000    2.135213    ( 0.0000,  0.0000,  0.0000)
  13 O      0.000000   10.274692    5.497228    ( 0.0000,  0.0000,  0.0000)
  14 F      0.000000    3.455769    1.380850    ( 0.0000,  0.0000,  0.0000)
  15 F     -0.003031   17.093615    1.380850    ( 0.0000,  0.0000,  0.0000)
  16 F      0.000000   13.556244    4.776955    ( 0.0000,  0.0000,  0.0000)
  17 F      0.000000    6.818923    4.776955    ( 0.0000,  0.0000,  0.0000)
  18 F      0.000000    3.460146    5.429327    ( 0.0000,  0.0000,  0.0000)
  19 F     -0.025605   17.089238    5.429327    ( 0.0000,  0.0000,  0.0000)
  20 F      0.000000   13.734838    2.033221    ( 0.0000,  0.0000,  0.0000)
  21 F      0.000000    6.814546    2.033221    ( 0.0000,  0.0000,  0.0000)
  22 F      1.626314    1.405002    6.767331    ( 0.0000,  0.0000,  0.0000)
  23 F      1.653291   19.144382    6.767331    ( 0.0000,  0.0000,  0.0000)
  24 F      1.626314   11.679694    3.371226    ( 0.0000,  0.0000,  0.0000)
  25 F      1.626314    8.869690    3.371226    ( 0.0000,  0.0000,  0.0000)
  26 F      1.626314    2.017621    3.434678    ( 0.0000,  0.0000,  0.0000)
  27 F      1.626314   18.531763    3.434678    ( 0.0000,  0.0000,  0.0000)
  28 F      1.626314   12.292313    0.041276    ( 0.0000,  0.0000,  0.0000)
  29 F      1.626314    8.257071    0.038573    ( 0.0000,  0.0000,  0.0000)
  30 F      1.626314    4.809789    3.406464    ( 0.0000,  0.0000,  0.0000)
  31 F      1.626314   15.678358    3.406464    ( 0.0000,  0.0000,  0.0000)
  32 F      1.657289   15.084481    0.010358    ( 0.0000,  0.0000,  0.0000)
  33 F      1.626314    5.464903    0.010358    ( 0.0000,  0.0000,  0.0000)
  34 F      0.000000    0.000000    4.718827    ( 0.0000,  0.0000,  0.0000)
  35 F      0.000000   10.274692    1.322722    ( 0.0000,  0.0000,  0.0000)

Unit cell:
           periodic     x           y           z      points  spacing
  1. axis:    yes    3.252628    0.000000    0.000000    16     0.2033
  2. axis:    yes    0.000000   20.549384    0.000000   104     0.1976
  3. axis:    yes    0.000000    0.000000    6.792211    32     0.2123

  Lengths:   3.252628  20.549384   6.792211
  Angles:   90.000000  90.000000  90.000000

Effective grid spacing dv^(1/3) = 0.2043

                     log10-error:    total        iterations:
           time      wfs    density  energy       fermi  poisson
iter:   1  08:46:23  +1.74   +inf  -213.263524    3      19
iter:   2  08:46:31  +0.20   +inf  -214.162517    3
iter:   3  08:46:40  -0.38   +inf  -214.422333    2
iter:   4  08:46:51  -0.64  -1.12  -212.120852    3      9
iter:   5  08:47:02  -0.25  -1.16  -234.706173    34     13
iter:   6  08:47:12  -0.26  -1.12  -274.898295    32     15
iter:   7  08:47:23  -0.31  -1.05  -239.485020    35     15
iter:   8  08:47:34  -0.46  -1.18  -218.511790    4      14
iter:   9  08:47:45  -0.55  -1.27  -250.755192    4      15
iter:  10  08:47:56  -0.65  -1.12  -211.399888    4      14
iter:  11  08:48:06  -1.13  -1.34  -207.693789    3      10
iter:  12  08:48:17  -1.36  -1.42  -208.765537    3      12
iter:  13  08:48:28  -1.55  -1.39  -207.644639    3      12
iter:  14  08:48:38  -1.65  -1.42  -209.167171    4      12
iter:  15  08:48:49  -1.48  -1.39  -209.740771    3      13
iter:  16  08:49:00  -1.52  -1.37  -206.821186    2      12
iter:  17  08:49:10  -1.74  -1.48  -206.888951    3      8
iter:  18  08:49:21  -1.86  -1.49  -207.082866    3      10
iter:  19  08:49:32  -1.93  -1.48  -208.006816    3      12
iter:  20  08:49:44  -1.88  -1.44  -206.165072    3      11
iter:  21  08:49:54  -1.99  -1.54  -207.274237    3      10
iter:  22  08:50:05  -1.45  -1.52  -213.956648    3      13
iter:  23  08:50:18  -1.20  -1.36  -207.037825    3      12
iter:  24  08:50:31  -1.61  -1.55  -208.802601    3      11
iter:  25  08:50:45  -1.76  -1.48  -207.375609    3      12
iter:  26  08:50:58  -1.80  -1.56  -206.849135    3      11
iter:  27  08:51:11  -2.13  -1.58  -206.004819    3      10
iter:  28  08:51:25  -2.00  -1.64  -207.393652    3      10
iter:  29  08:51:38  -1.88  -1.57  -206.088064    2      10
iter:  30  08:51:51  -1.96  -1.65  -209.483696    3      12
iter:  31  08:52:04  -1.66  -1.48  -207.084275    3      12
iter:  32  08:52:15  -1.93  -1.60  -206.147830    2      10
iter:  33  08:52:25  -2.02  -1.68  -206.738792    2      10
iter:  34  08:52:36  -1.92  -1.65  -206.681042    3      9
iter:  35  08:52:46  -1.59  -1.70  -206.849582    3      8
iter:  36  08:52:57  -1.52  -1.67  -219.908237    3      13
iter:  37  08:53:08  -1.44  -1.31  -206.645502    4      13
iter:  38  08:53:19  -1.74  -1.74  -206.774389    3      9
iter:  39  08:53:30  -1.85  -1.73  -207.654609    3      11
iter:  40  08:53:41  -2.08  -1.65  -206.585282    3      11
iter:  41  08:53:52  -2.04  -1.78  -206.310694    3      9
iter:  42  08:54:02  -1.90  -1.79  -212.652151    3      12
iter:  43  08:54:13  -1.61  -1.44  -206.539328    3      13
iter:  44  08:54:24  -2.11  -1.78  -206.318396    3      8
iter:  45  08:54:34  -2.49  -1.82  -206.498633    3      8
iter:  46  08:54:46  -2.22  -1.79  -207.672230    3      11
iter:  47  08:54:56  -2.02  -1.69  -206.317268    3      11
iter:  48  08:55:07  -1.83  -1.84  -211.296492    3      12
iter:  49  08:55:19  -1.63  -1.50  -206.414268    3      12
iter:  50  08:55:30  -2.12  -1.84  -206.380905    2      8
iter:  51  08:55:40  -2.26  -1.87  -206.355744    2      8
iter:  52  08:55:51  -2.32  -1.90  -206.837777    3      10
iter:  53  08:56:02  -1.98  -1.87  -208.578718    3      12
iter:  54  08:56:12  -1.72  -1.64  -207.311352    3      11
iter:  55  08:56:23  -1.99  -1.80  -206.231617    2      11
iter:  56  08:56:34  -2.49  -1.98  -206.061217    2      7
iter:  57  08:56:45  -3.01  -2.03  -205.990141    2      6
iter:  58  08:56:56  -2.61  -2.07  -206.846598    3      10
iter:  59  08:57:07  -2.24  -1.86  -207.102342    2      11
iter:  60  08:57:19  -2.25  -1.83  -206.224342    3      10
iter:  61  08:57:29  -2.71  -2.01  -206.212887    3      9
iter:  62  08:57:40  -2.58  -2.01  -206.087392    2      8
iter:  63  08:57:50  -2.74  -2.07  -206.033302    3      7
[...]
iter: 145  09:13:22  -6.39  -3.91  -205.940700    2      2
iter: 146  09:13:33  -6.31  -4.02  -205.940367    2      3
iter: 147  09:13:45  -6.35  -4.03  -205.939946    2      3
iter: 148  09:13:56  -6.28  -3.96  -205.940774    2      2
iter: 149  09:14:08  -6.65  -4.08  -205.940389    2      2
iter: 150  09:14:18  -6.28  -4.08  -205.940431    1      3
iter: 151  09:14:29  -6.14  -3.79  -205.940616    2      3
iter: 152  09:14:40  -6.68  -4.09  -205.940494    2      2
iter: 153  09:14:50  -6.42  -4.21  -205.939951    2      3
iter: 154  09:15:00  -6.33  -3.89  -205.940297    2      2
iter: 155  09:15:11  -7.07  -4.16  -205.940569    2      2
iter: 156  09:15:21  -7.08  -4.25  -205.940369    2      2
iter: 157  09:15:32  -7.02  -4.21  -205.940363    2      2
iter: 158  09:15:43  -7.10  -4.15  -205.940548    2      2
iter: 159  09:15:54  -7.53  -4.25  -205.940483    2      1

Converged after 159 iterations.

Dipole moment: (-24.846121, -31.889778, -32.389656) |e|*Ang

Energy contributions relative to reference atoms: (reference = -479224.937077)

Kinetic:       +176.009697
Potential:     -180.039219
External:        +0.000000
XC:            -212.531298
Entropy (-ST):   -1.411095
Local:          +11.325885
Free energy:   -206.646030
Extrapolated:  -205.940483

Fermi level: 3.83522

 Band  Eigenvalues  Occupancy
    0    -21.00090    2.00000
    1    -20.79133    2.00000
    2    -20.69074    2.00000
    3    -20.64476    2.00000
    4    -20.60231    2.00000
    5    -20.47440    2.00000
    6    -20.46101    2.00000
    7    -20.37834    2.00000
    8    -20.35191    2.00000
    9    -20.34610    2.00000
   10    -20.32986    2.00000
   11    -20.31184    2.00000
   12    -20.28185    2.00000
   13    -20.26180    2.00000
   14    -20.20496    2.00000
   15    -20.18167    2.00000
   16    -20.17983    2.00000
   17    -20.05220    2.00000
   18    -19.98715    2.00000
   19    -19.67620    2.00000
   20    -19.22853    2.00000
   21    -19.12231    2.00000
   22    -14.48437    2.00000
   23    -14.33351    2.00000
   24     -4.28894    2.00000
   25     -4.17507    2.00000
   26     -4.03005    2.00000
   27     -3.94395    2.00000
   28     -3.78686    2.00000
   29     -3.60804    2.00000
   30     -3.54310    2.00000
   31     -3.51017    2.00000
   32     -3.32463    2.00000
   33     -3.14501    2.00000
   34     -2.84237    2.00000
   35     -2.75241    2.00000
   36     -2.69963    2.00000
   37     -2.62916    2.00000
   38     -2.53706    2.00000
   39     -2.52748    2.00000
   40     -2.49283    2.00000
   41     -2.43496    2.00000
   42     -2.41609    2.00000
   43     -2.39777    2.00000
   44     -2.39338    2.00000
   45     -2.38482    2.00000
   46     -2.37296    2.00000
   47     -2.34680    2.00000
   48     -2.33791    2.00000
   49     -2.33447    2.00000
   50     -2.31434    2.00000
   51     -2.26066    2.00000
   52     -2.24307    2.00000
   53     -2.23291    2.00000
   54     -2.21460    2.00000
   55     -2.18806    2.00000
   56     -2.16217    2.00000
   57     -2.13750    2.00000
   58     -2.09696    2.00000
   59     -2.07592    2.00000
[...]
  189     16.27445    0.00000
  190     16.41976    0.00000
  191     16.42647    0.00000
  192     16.45943    0.00000
  193     16.81582    0.00000
  194     16.84728    0.00000
  195     16.94725    0.00000
  196     16.98787    0.00000
  197     17.05907    0.00000
  198     17.11101    0.00000
  199     17.17186    0.00000
  200     17.33551    0.00000
  201     17.39635    0.00000
  202     17.46222    0.00000
  203     17.48352    0.00000