User:   murakami@tssm1.eng.shizuoka.ac.jp
Date:   Fri Mar 29 15:57:34 2019
Arch:   x86_64
Pid:    31289
Python: 3.6.5
gpaw:   /home/murakami/.local/lib/python3.6/site-packages/gpaw
_gpaw:  /home/murakami/.local/lib/python3.6/site-packages/
        _gpaw.cpython-36m-x86_64-linux-gnu.so
ase:    /home/murakami/.local/lib/python3.6/site-packages/ase (version 3.16.2)
numpy:  /home/murakami/.local/lib/python3.6/site-packages/numpy (version 1.15.2)
scipy:  /home/murakami/.local/lib/python3.6/site-packages/scipy (version 1.1.0)
units:  Angstrom and eV
cores:  1

Input parameters:
  kpts: {size: (1, 1, 1)}
  maxiter: 300
  xc: PBE

System changes: positions, numbers, cell, pbc, initial_charges, initial_magmoms

Initialize ...

Fe-setup:
  name: Iron
  id: 37abbd8d6c3c35915a9b583b742da910
  Z: 26
  valence: 8
  core: 18
  charge: 0.0
  file: /home/murakami/Public/gpaw-setups-0.9.20000/Fe.PBE.gz
  cutoffs: 1.06(comp), 2.06(filt), 2.67(core), lmax=2
  valence states:
                energy  radius
    4s(2.00)    -5.291   1.164
    4p(0.00)    -1.326   1.058
    3d(6.00)    -7.505   1.058
    *s          21.920   1.164
    *p          25.885   1.058
    *d          19.706   1.058

  Using partial waves for Fe as LCAO basis

O-setup:
  name: Oxygen
  id: 32ecd46bf208036f09c70b0ec9a88b78
  Z: 8
  valence: 6
  core: 2
  charge: 0.0
  file: /home/murakami/Public/gpaw-setups-0.9.20000/O.PBE.gz
  cutoffs: 0.67(comp), 1.17(filt), 0.83(core), lmax=2
  valence states:
                energy  radius
    2s(2.00)   -23.961   0.688
    2p(4.00)    -9.029   0.598
    *s           3.251   0.688
    *p          18.182   0.598
    *d           0.000   0.619

[...]

F-setup:
  name: Fluorine
  id: 9cd46ba2a61e170ad72278be75b55cc0
  Z: 9
  valence: 7
  core: 2
  charge: 0.0
  file: /home/murakami/Public/gpaw-setups-0.9.20000/F.PBE.gz
  cutoffs: 0.64(comp), 1.14(filt), 0.74(core), lmax=2
  valence states:
                energy  radius
    2s(2.00)   -29.898   0.635
    2p(5.00)   -11.110   0.635
    *s          -2.687   0.635
    *p          16.102   0.635
    *d           0.000   0.635

  Using partial waves for F as LCAO basis

Reference energy: -479224.937077

Spin-paired calculation

Occupation numbers:
  Fermi-Dirac: width=0.1000 eV

Convergence criteria:
  Maximum total energy change: 0.0005 eV / electron
  Maximum integral of absolute density change: 0.0001 electrons
  Maximum integral of absolute eigenstate change: 4e-08 eV^2
  Maximum number of iterations: 300

Symmetries present (total): 1

  ( 1  0  0)
  ( 0  1  0)
  ( 0  0  1)

1 k-point (Gamma)
1 k-point in the irreducible part of the Brillouin zone
       k-points in crystal coordinates                weights
   0:     0.00000000    0.00000000    0.00000000          1/1

Eigensolver
   Davidson(niter=1, smin=None, normalize=True)

Densities:
  Coarse grid: 16*104*32 grid
  Fine grid: 32*208*64 grid
  Total Charge: 0.000000

Density mixing:
  Method: separate
  Backend: pulay
  Linear mixing parameter: 0.05
  Mixing with 5 old densities
  Damping of long wave oscillations: 50

Hamiltonian:
  XC and Coulomb potentials evaluated on a 32*208*64 grid
  Using the PBE Exchange-Correlation functional
  Interpolation: tri-quintic (5. degree polynomial)
  Poisson solver: Jacobi solver with 5 multi-grid levels
    Coarsest grid: 2 x 13 x 4 points
    Stencil: 8*3+1=25 point O(h^6) finite-difference Laplacian
    Max iterations: 1000
    Tolerance: 2.000000e-10

Total number of cores used: 1

Number of atoms: 36
Number of atomic orbitals: 204
Number of bands in calculation: 204
Bands to converge: occupied states only
Number of valence electrons: 262

... initialized

Initializing position-dependent things.

Density initialized from atomic densities
Creating initial wave functions:
  204 bands from LCAO basis set

                       F

[...]

                      F
               F Fee
             O       F
                  FFe
                  F
           F Fe F     Fe
            F    F  F
         F     Fee
             FF    F
         FeF
       F    F   F
           Fe
         F Fe  F
       O     Fe

       Fe

Positions:
   0 Fe    -0.015446    3.425973    3.350496    ( 0.0000,  0.0000,  0.0000)
   1 Fe    -0.015700   17.123411    3.405553    ( 0.0000,  0.0000,  0.0000)
   2 Fe    -0.000044   13.700665    0.009448    ( 0.0000,  0.0000,  0.0000)
   3 Fe    -0.000044    6.848719    0.009448    ( 0.0000,  0.0000,  0.0000)
   4 Fe     1.626314    3.411629    0.000027    ( 0.0000,  0.0000,  0.0000)
   5 Fe     1.626314   17.333549    0.000027    ( 0.0000,  0.0000,  0.0000)
   6 Fe     1.610658   13.686321    3.396133    ( 0.0000,  0.0000,  0.0000)
   7 Fe     1.610658    6.863063    3.396133    ( 0.0000,  0.0000,  0.0000)
   8 Fe    -0.000381    0.000000    0.082607    ( 0.0000,  0.0000,  0.0000)
   9 Fe    -0.016037   10.274692    3.478712    ( 0.0000,  0.0000,  0.0000)
  10 Fe     1.611522    0.000000    3.208640    ( 0.0000,  0.0000,  0.0000)
  11 Fe     1.595866   10.274692    6.604746    ( 0.0000,  0.0000,  0.0000)
  12 O     -0.009843    0.000000    2.135213    ( 0.0000,  0.0000,  0.0000)
  13 O     -0.031510   10.274692    5.531319    ( 0.0000,  0.0000,  0.0000)
  14 F     -0.006366    3.455769    1.380850    ( 0.0000,  0.0000,  0.0000)
  15 F     -0.006366   17.093615    1.380850    ( 0.0000,  0.0000,  0.0000)
  16 F     -0.022022   13.730461    4.776955    ( 0.0000,  0.0000,  0.0000)
  17 F     -0.022022    6.818923    4.776955    ( 0.0000,  0.0000,  0.0000)
  18 F     -0.025029    3.460146    5.429327    ( 0.0000,  0.0000,  0.0000)
  19 F     -0.009566   17.089238    5.429327    ( 0.0000,  0.0000,  0.0000)
  20 F     -0.009524   13.734838    2.065912    ( 0.0000,  0.0000,  0.0000)
  21 F     -0.009373    6.814546    2.033221    ( 0.0000,  0.0000,  0.0000)
  22 F      1.595117    1.405002    6.767331    ( 0.0000,  0.0000,  0.0000)
  23 F      1.595117   19.144382    6.767331    ( 0.0000,  0.0000,  0.0000)
  24 F      1.610773   11.679694    3.371226    ( 0.0000,  0.0000,  0.0000)
  25 F      1.610773    8.869690    3.371226    ( 0.0000,  0.0000,  0.0000)
  26 F      1.635789    2.017621    3.434678    ( 0.0000,  0.0000,  0.0000)
  27 F      1.610480   18.531763    3.434678    ( 0.0000,  0.0000,  0.0000)
  28 F      1.638018   12.292313    0.038573    ( 0.0000,  0.0000,  0.0000)
  29 F      1.626136    8.257071    0.038573    ( 0.0000,  0.0000,  0.0000)
  30 F      1.610610    4.809789    3.406464    ( 0.0000,  0.0000,  0.0000)
  31 F      1.610610   15.739595    3.406464    ( 0.0000,  0.0000,  0.0000)
  32 F      1.626154   15.084481    0.034796    ( 0.0000,  0.0000,  0.0000)
  33 F      1.626266    5.439833    0.010358    ( 0.0000,  0.0000,  0.0000)
  34 F     -0.021754    0.002774    4.718827    ( 0.0000,  0.0000,  0.0000)
  35 F     -0.006098   10.274692    1.322722    ( 0.0000,  0.0000,  0.0000)

Unit cell:
           periodic     x           y           z      points  spacing
  1. axis:    yes    3.252628    0.000000    0.000000    16     0.2033
  2. axis:    yes    0.000000   20.549384    0.000000   104     0.1976
  3. axis:    yes   -0.031312    0.000000    6.792211    32     0.2123

  Lengths:   3.252628  20.549384   6.792283
  Angles:   90.000000  90.264131  90.000000

Effective grid spacing dv^(1/3) = 0.2043

                     log10-error:    total        iterations:
           time      wfs    density  energy       fermi  poisson
iter:   1  15:58:05  +1.74   +inf  -213.332169    3      19
iter:   2  15:58:15  +0.21   +inf  -214.243998    3
iter:   3  15:58:26  -0.37   +inf  -214.507634    2
iter:   4  15:58:38  -0.63  -1.12  -212.470402    3      9
iter:   5  15:58:52  -0.35  -1.16  -249.244498    34     14
iter:   6  15:59:05  -0.34  -1.03  -286.951540    5      16
iter:   7  15:59:20  -0.35  -1.04  -218.628727    4      15
iter:   8  15:59:35  -0.37  -1.28  -234.261692    36     14
iter:   9  15:59:49  -0.50  -1.15  -240.134541    3      15
iter:  10  16:00:03  -0.58  -1.09  -212.280726    4      14
iter:  11  16:00:18  -0.75  -1.34  -219.967861    3      13
iter:  12  16:00:31  -1.09  -1.22  -216.415088    4      14
iter:  13  16:00:44  -1.21  -1.25  -206.738110    3      12
iter:  14  16:01:01  -1.51  -1.45  -223.388690    32     13
iter:  15  16:01:16  -1.16  -1.19  -208.189495    3      14
iter:  16  16:01:31  -1.43  -1.42  -211.339097    3      12
iter:  17  16:01:48  -1.31  -1.35  -209.212569    3      13
iter:  18  16:02:05  -1.64  -1.40  -207.504559    3      12
iter:  19  16:02:19  -1.83  -1.46  -206.725163    3      11
iter:  20  16:02:33  -1.82  -1.49  -206.429704    4      10
iter:  21  16:02:47  -1.74  -1.53  -206.617071    2      7
iter:  22  16:03:01  -1.72  -1.53  -209.697135    3      12
iter:  23  16:03:15  -1.35  -1.42  -211.089214    3      13
iter:  24  16:03:31  -1.43  -1.37  -207.973027    3      13
iter:  25  16:03:46  -1.46  -1.53  -211.155660    3      12
iter:  26  16:04:00  -1.59  -1.39  -206.073586    3      12
iter:  27  16:04:13  -2.29  -1.62  -205.944013    3      6
iter:  28  16:04:28  -2.68  -1.62  -206.377421    3      8
iter:  29  16:04:43  -1.79  -1.60  -211.202637    3      12
iter:  30  16:05:00  -1.59  -1.40  -208.465544    3      13
iter:  31  16:05:17  -1.51  -1.51  -212.075186    3      12
iter:  32  16:05:35  -1.55  -1.38  -206.371720    3      12
iter:  33  16:05:53  -2.16  -1.64  -206.422403    3      8
iter:  34  16:06:11  -2.42  -1.64  -205.967230    3      7
iter:  35  16:06:28  -2.03  -1.68  -211.065680    3      12
iter:  36  16:06:43  -1.59  -1.42  -206.965979    3      12
iter:  37  16:06:58  -1.70  -1.62  -210.133132    3      11
iter:  38  16:07:13  -1.49  -1.47  -209.155185    2      12
iter:  39  16:07:28  -1.88  -1.51  -206.329198    2      11
iter:  40  16:07:39  -2.37  -1.70  -206.225341    3      7
iter:  41  16:07:51  -2.33  -1.70  -208.228101    3      11
iter:  42  16:08:03  -1.97  -1.58  -206.228011    3      11
iter:  43  16:08:18  -2.12  -1.72  -207.815243    3      10
iter:  44  16:08:31  -1.46  -1.61  -219.845580    4      13
iter:  45  16:08:48  -1.38  -1.34  -206.840814    3      13
iter:  46  16:09:04  -1.91  -1.69  -206.341822    3      10
iter:  47  16:09:16  -1.83  -1.75  -210.884803    3      11
iter:  48  16:09:27  -1.58  -1.49  -206.364687    3      12
iter:  49  16:09:39  -2.03  -1.76  -207.548023    3      10
iter:  50  16:09:58  -1.62  -1.66  -216.604755    3      13
iter:  51  16:10:15  -1.51  -1.38  -206.168358    3      12
iter:  52  16:10:33  -2.25  -1.81  -206.157530    2      6
iter:  53  16:10:52  -2.20  -1.82  -207.443138    3      10
iter:  54  16:11:06  -1.70  -1.74  -207.166097    3      10
iter:  55  16:11:22  -1.82  -1.74  -208.116820    3      11
iter:  56  16:11:35  -1.56  -1.65  -220.574353    3      13
iter:  57  16:11:48  -1.45  -1.34  -206.190676    3      13
iter:  58  16:12:03  -2.20  -1.88  -206.062671    2      8
iter:  59  16:12:15  -2.53  -1.92  -206.789135    3      9
iter:  60  16:12:28  -2.36  -1.80  -206.196657    2      9
iter:  61  16:12:40  -2.11  -1.90  -209.703779    3      12
iter:  62  16:12:57  -1.70  -1.56  -209.227255    2      13
iter:  63  16:13:14  -1.89  -1.60  -206.493432    3      10
[...]
iter: 164  16:34:43  -6.23  -3.98  -205.957867    2      2
iter: 165  16:34:54  -6.59  -4.12  -205.957735    2      3
iter: 166  16:35:05  -6.41  -4.02  -205.957995    2      2
iter: 167  16:35:16  -6.63  -4.14  -205.957772    2      3
iter: 168  16:35:27  -5.90  -3.90  -205.958462    2      3
iter: 169  16:35:38  -5.81  -3.61  -205.957342    2      3
iter: 170  16:35:49  -5.95  -3.78  -205.958228    2      3
iter: 171  16:36:00  -6.23  -4.17  -205.957595    2      3
iter: 172  16:36:11  -6.29  -4.01  -205.958020    2      3
iter: 173  16:36:22  -6.61  -4.13  -205.957918    2      3
iter: 174  16:36:33  -6.38  -4.35  -205.958166    2      2
iter: 175  16:36:44  -6.28  -4.07  -205.957474    2      3
iter: 176  16:36:55  -6.38  -4.05  -205.957772    2      2
iter: 177  16:37:05  -7.17  -4.53  -205.957861    2      1
iter: 178  16:37:16  -7.82  -4.67  -205.957836    1      1

Converged after 178 iterations.

Dipole moment: (-25.160457, -31.369434, -35.370893) |e|*Ang

Energy contributions relative to reference atoms: (reference = -479224.937077)

Kinetic:       +178.885495
Potential:     -182.401074
External:        +0.000000
XC:            -213.055090
Entropy (-ST):   -1.402408
Local:          +11.314038
Free energy:   -206.659040
Extrapolated:  -205.957836

Fermi level: 3.83914

 Band  Eigenvalues  Occupancy
    0    -21.15532    2.00000
    1    -20.79569    2.00000
    2    -20.70179    2.00000
    3    -20.65312    2.00000
    4    -20.56565    2.00000
    5    -20.39214    2.00000
    6    -20.36265    2.00000
    7    -20.34031    2.00000
    8    -20.31749    2.00000
    9    -20.30334    2.00000
   10    -20.29990    2.00000
   11    -20.27558    2.00000
   12    -20.26828    2.00000
   13    -20.22506    2.00000
   14    -20.19259    2.00000
   15    -20.18658    2.00000
   16    -20.17042    2.00000
   17    -20.16051    2.00000
   18    -20.13584    2.00000
   19    -19.78563    2.00000
   20    -19.06520    2.00000
   21    -19.01446    2.00000
   22    -14.52546    2.00000
   23    -14.49725    2.00000
   24     -4.33114    2.00000
   25     -4.18217    2.00000
   26     -4.09570    2.00000
   27     -3.95855    2.00000
   28     -3.87941    2.00000
   29     -3.62460    2.00000
   30     -3.47017    2.00000
   31     -3.40217    2.00000
   32     -3.29658    2.00000
   33     -3.08140    2.00000
   34     -2.79446    2.00000
   35     -2.72619    2.00000
   36     -2.72304    2.00000
   37     -2.70564    2.00000
   38     -2.58497    2.00000
   39     -2.51657    2.00000
   40     -2.50620    2.00000
   41     -2.44487    2.00000
   42     -2.43003    2.00000
   43     -2.40919    2.00000
   44     -2.39654    2.00000
   45     -2.39537    2.00000
   46     -2.31165    2.00000
   47     -2.29703    2.00000
   48     -2.29245    2.00000
   49     -2.27871    2.00000
   50     -2.25399    2.00000
   51     -2.25158    2.00000
   52     -2.21497    2.00000
   53     -2.19285    2.00000
   54     -2.18935    2.00000
   55     -2.16847    2.00000
   56     -2.16464    2.00000
   57     -2.14029    2.00000
   58     -2.05434    2.00000
   59     -2.03175    2.00000
[...]
  189     16.28848    0.00000
  190     16.43262    0.00000
  191     16.44737    0.00000
  192     16.48549    0.00000
  193     16.81858    0.00000
  194     16.87253    0.00000
  195     16.94944    0.00000
  196     17.00442    0.00000
  197     17.01816    0.00000
  198     17.12658    0.00000
  199     17.14425    0.00000
  200     17.35489    0.00000
  201     17.39579    0.00000
  202     17.42601    0.00000
  203     17.43114    0.00000