User:   murakami@tssm1.eng.shizuoka.ac.jp
Date:   Sat Mar 30 06:42:49 2019
Arch:   x86_64
Pid:    31289
Python: 3.6.5
gpaw:   /home/murakami/.local/lib/python3.6/site-packages/gpaw
_gpaw:  /home/murakami/.local/lib/python3.6/site-packages/
        _gpaw.cpython-36m-x86_64-linux-gnu.so
ase:    /home/murakami/.local/lib/python3.6/site-packages/ase (version 3.16.2)
numpy:  /home/murakami/.local/lib/python3.6/site-packages/numpy (version 1.15.2)
scipy:  /home/murakami/.local/lib/python3.6/site-packages/scipy (version 1.1.0)
units:  Angstrom and eV
cores:  1

Input parameters:
  kpts: {size: (1, 1, 1)}
  maxiter: 300
  xc: PBE

System changes: positions, numbers, cell, pbc, initial_charges, initial_magmoms

Initialize ...

Fe-setup:
  name: Iron
  id: 37abbd8d6c3c35915a9b583b742da910
  Z: 26
  valence: 8
  core: 18
  charge: 0.0
  file: /home/murakami/Public/gpaw-setups-0.9.20000/Fe.PBE.gz
  cutoffs: 1.06(comp), 2.06(filt), 2.67(core), lmax=2
  valence states:
                energy  radius
    4s(2.00)    -5.291   1.164
    4p(0.00)    -1.326   1.058
    3d(6.00)    -7.505   1.058
    *s          21.920   1.164
    *p          25.885   1.058
    *d          19.706   1.058

  Using partial waves for Fe as LCAO basis

O-setup:
  name: Oxygen
  id: 32ecd46bf208036f09c70b0ec9a88b78
  Z: 8
  valence: 6
  core: 2
  charge: 0.0
  file: /home/murakami/Public/gpaw-setups-0.9.20000/O.PBE.gz
  cutoffs: 0.67(comp), 1.17(filt), 0.83(core), lmax=2
  valence states:
                energy  radius
    2s(2.00)   -23.961   0.688
    2p(4.00)    -9.029   0.598
    *s           3.251   0.688
    *p          18.182   0.598
    *d           0.000   0.619

[...]

F-setup:
  name: Fluorine
  id: 9cd46ba2a61e170ad72278be75b55cc0
  Z: 9
  valence: 7
  core: 2
  charge: 0.0
  file: /home/murakami/Public/gpaw-setups-0.9.20000/F.PBE.gz
  cutoffs: 0.64(comp), 1.14(filt), 0.74(core), lmax=2
  valence states:
                energy  radius
    2s(2.00)   -29.898   0.635
    2p(5.00)   -11.110   0.635
    *s          -2.687   0.635
    *p          16.102   0.635
    *d           0.000   0.635

  Using partial waves for F as LCAO basis

Reference energy: -479224.937077

Spin-paired calculation

Occupation numbers:
  Fermi-Dirac: width=0.1000 eV

Convergence criteria:
  Maximum total energy change: 0.0005 eV / electron
  Maximum integral of absolute density change: 0.0001 electrons
  Maximum integral of absolute eigenstate change: 4e-08 eV^2
  Maximum number of iterations: 300

Symmetries present (total): 1

  ( 1  0  0)
  ( 0  1  0)
  ( 0  0  1)

1 k-point (Gamma)
1 k-point in the irreducible part of the Brillouin zone
       k-points in crystal coordinates                weights
   0:     0.00000000    0.00000000    0.00000000          1/1

Eigensolver
   Davidson(niter=1, smin=None, normalize=True)

Densities:
  Coarse grid: 16*104*32 grid
  Fine grid: 32*208*64 grid
  Total Charge: 0.000000

Density mixing:
  Method: separate
  Backend: pulay
  Linear mixing parameter: 0.05
  Mixing with 5 old densities
  Damping of long wave oscillations: 50

Hamiltonian:
  XC and Coulomb potentials evaluated on a 32*208*64 grid
  Using the PBE Exchange-Correlation functional
  Interpolation: tri-quintic (5. degree polynomial)
  Poisson solver: Jacobi solver with 5 multi-grid levels
    Coarsest grid: 2 x 13 x 4 points
    Stencil: 12*3+1=37 point O(h^6) finite-difference Laplacian
    Max iterations: 1000
    Tolerance: 2.000000e-10

Total number of cores used: 1

Number of atoms: 36
Number of atomic orbitals: 204
Number of bands in calculation: 204
Bands to converge: occupied states only
Number of valence electrons: 262

... initialized

Initializing position-dependent things.

Density initialized from atomic densities
Creating initial wave functions:
  204 bands from LCAO basis set

                       F

[...]

                      F
               F Fe
                     F
             O   F Fe
                  F
             FeF     Fe
           FF    F  F
         F     Fe
             FF    F
         FeF
       F     F  F
           Fe
         F Fe  F
       O     Fe

       Fe

Positions:
   0 Fe    -0.020778    3.409922    3.405553    ( 0.0000,  0.0000,  0.0000)
   1 Fe    -0.151712   17.107361    3.405553    ( 0.0000,  0.0000,  0.0000)
   2 Fe    -0.121387   13.700620    0.009448    ( 0.0000,  0.0000,  0.0000)
   3 Fe    -0.060679    6.848675    0.009448    ( 0.0000,  0.0000,  0.0000)
   4 Fe     1.596087    3.411629    0.000027    ( 0.0000,  0.0000,  0.0000)
   5 Fe     1.474475   17.137755    0.000027    ( 0.0000,  0.0000,  0.0000)
   6 Fe     1.505054   13.670315    3.396133    ( 0.0000,  0.0000,  0.0000)
   7 Fe     1.565508    6.846747    3.461827    ( 0.0000,  0.0000,  0.0000)
   8 Fe     0.000000   -0.000389    0.082607    ( 0.0000,  0.0000,  0.0000)
   9 Fe    -0.091033   10.258297    3.478712    ( 0.0000,  0.0000,  0.0000)
  10 Fe     1.626314   -0.015122    3.208640    ( 0.0000,  0.0000,  0.0000)
  11 Fe     1.563019   10.243564    6.604746    ( 0.0000,  0.0000,  0.0000)
  12 O      0.000000   -0.010063    2.135213    ( 0.0000,  0.0000,  0.0000)
  13 O     -0.091033   10.248623    5.531319    ( 0.0000,  0.0000,  0.0000)
  14 F     -0.030618    3.449261    1.380850    ( 0.0000,  0.0000,  0.0000)
  15 F     -0.151448   17.087107    1.380850    ( 0.0000,  0.0000,  0.0000)
  16 F     -0.147415   13.707947    4.776955    ( 0.0000,  0.0000,  0.0000)
  17 F     -0.060415    6.796409    4.776955    ( 0.0000,  0.0000,  0.0000)
  18 F     -0.021084    3.434558    5.429327    ( 0.0000,  0.0000,  0.0000)
  19 F     -0.152397   17.175109    5.429327    ( 0.0000,  0.0000,  0.0000)
  20 F     -0.121690   13.725256    2.033221    ( 0.0000,  0.0000,  0.0000)
  21 F     -0.060376    6.804729    2.082954    ( 0.0000,  0.0000,  0.0000)
  22 F      1.613866    1.372842    6.823768    ( 0.0000,  0.0000,  0.0000)
  23 F      1.488663   19.112487    6.767331    ( 0.0000,  0.0000,  0.0000)
  24 F      1.522833   11.663806    3.371226    ( 0.0000,  0.0000,  0.0000)
  25 F      1.529176    8.853801    3.371226    ( 0.0000,  0.0000,  0.0000)
  26 F      1.608438    2.001433    3.434678    ( 0.0000,  0.0000,  0.0000)
  27 F      1.450362   18.515575    3.434678    ( 0.0000,  0.0000,  0.0000)
  28 F      1.541325   12.292131    0.038573    ( 0.0000,  0.0000,  0.0000)
  29 F      1.553157    8.256889    0.038573    ( 0.0000,  0.0000,  0.0000)
  30 F      1.566031    4.793734    3.406464    ( 0.0000,  0.0000,  0.0000)
  31 F      1.486862   15.723540    3.406464    ( 0.0000,  0.0000,  0.0000)
  32 F      1.492667   15.084432    0.010358    ( 0.0000,  0.0000,  0.0000)
  33 F      1.577895    5.464854    0.010358    ( 0.0000,  0.0000,  0.0000)
  34 F      0.000000   -0.022240    4.718827    ( 0.0000,  0.0000,  0.0000)
  35 F     -0.091033   10.268458    1.322722    ( 0.0000,  0.0000,  0.0000)

Unit cell:
           periodic     x           y           z      points  spacing
  1. axis:    yes    3.252628    0.000000    0.000000    16     0.2033
  2. axis:    yes   -0.182066   20.549384    0.000000   104     0.1976
  3. axis:    yes    0.000000   -0.032012    6.792211    32     0.2123

  Lengths:   3.252628  20.550191   6.792286
  Angles:   90.270025  90.000000  90.507623

Effective grid spacing dv^(1/3) = 0.2043

                     log10-error:    total        iterations:
           time      wfs    density  energy       fermi  poisson
iter:   1  06:43:15  +1.74   +inf  -213.832243    3      19
iter:   2  06:43:24  +0.19   +inf  -214.727280    3
iter:   3  06:43:33  -0.38   +inf  -214.984779    2
iter:   4  06:43:44  -0.65  -1.12  -212.708922    3      9
iter:   5  06:43:56  -0.26  -1.16  -228.538747    36     11
iter:   6  06:44:08  -0.25  -1.15  -269.242188    4      15
iter:   7  06:44:20  -0.32  -1.09  -235.669061    34     15
iter:   8  06:44:33  -0.55  -1.16  -215.500434    3      14
iter:   9  06:44:45  -0.49  -1.29  -246.467629    4      15
iter:  10  06:44:57  -0.57  -1.15  -224.290696    4      14
iter:  11  06:45:09  -0.92  -1.22  -209.804445    3      13
iter:  12  06:45:21  -1.34  -1.38  -207.722673    3      12
iter:  13  06:45:32  -1.57  -1.43  -206.949816    3      11
iter:  14  06:45:44  -1.86  -1.46  -209.795077    3      11
iter:  15  06:45:55  -1.49  -1.39  -209.321670    3      13
iter:  16  06:46:07  -1.55  -1.40  -209.548317    3      12
iter:  17  06:46:19  -1.56  -1.40  -208.710602    3      12
iter:  18  06:46:30  -1.48  -1.44  -207.527417    2      10
iter:  19  06:46:42  -1.79  -1.48  -207.161011    2      11
iter:  20  06:46:53  -2.12  -1.49  -206.996143    3      10
iter:  21  06:47:05  -2.03  -1.52  -206.890728    2      10
iter:  22  06:47:16  -2.04  -1.53  -208.318117    3      11
iter:  23  06:47:28  -1.64  -1.49  -207.383682    3      12
iter:  24  06:47:40  -1.57  -1.56  -210.154648    3      12
iter:  25  06:47:51  -1.60  -1.45  -214.241583    3      13
iter:  26  06:48:03  -1.42  -1.37  -206.935588    3      12
iter:  27  06:48:15  -1.59  -1.66  -210.923828    3      12
iter:  28  06:48:27  -1.63  -1.45  -207.141976    3      12
iter:  29  06:48:39  -2.18  -1.64  -206.601804    2      9
iter:  30  06:48:50  -2.77  -1.69  -206.689148    2      6
iter:  31  06:49:02  -2.12  -1.69  -210.700383    3      12
iter:  32  06:49:14  -1.77  -1.47  -206.863474    3      12
iter:  33  06:49:28  -1.89  -1.69  -212.367162    3      12
iter:  34  06:49:42  -1.49  -1.47  -207.252143    3      12
iter:  35  06:49:55  -1.67  -1.71  -207.354262    3      9
iter:  36  06:50:08  -1.81  -1.71  -206.885573    3      7
iter:  37  06:50:22  -2.03  -1.76  -208.342365    3      10
iter:  38  06:50:36  -1.66  -1.69  -209.254994    2      12
iter:  39  06:50:50  -1.59  -1.62  -215.734403    3      12
iter:  40  06:51:02  -1.43  -1.37  -208.243638    3      13
iter:  41  06:51:14  -1.82  -1.66  -206.550371    2      11
iter:  42  06:51:25  -2.69  -1.88  -206.534975    2      6
iter:  43  06:51:37  -2.06  -1.90  -209.725610    3      11
iter:  44  06:51:48  -1.88  -1.59  -206.761668    3      11
iter:  45  06:52:00  -2.00  -1.88  -210.520179    3      11
iter:  46  06:52:12  -1.63  -1.56  -211.461328    3      12
iter:  47  06:52:24  -1.71  -1.52  -206.979634    3      12
iter:  48  06:52:35  -2.24  -1.85  -206.746634    2      6
iter:  49  06:52:47  -2.01  -1.91  -210.553725    3      11
iter:  50  06:52:58  -1.81  -1.56  -206.644461    3      12
iter:  51  06:53:10  -2.28  -1.94  -208.108791    3      10
iter:  52  06:53:21  -2.06  -1.75  -207.691959    2      11
iter:  53  06:53:33  -2.10  -1.81  -206.795608    3      10
iter:  54  06:53:45  -2.54  -1.96  -206.608471    2      6
iter:  55  06:53:56  -1.77  -2.00  -213.556358    4      12
iter:  56  06:54:08  -1.63  -1.47  -206.718437    3      12
iter:  57  06:54:19  -2.27  -1.98  -207.578996    2      10
iter:  58  06:54:32  -2.26  -1.83  -207.383867    2      11
iter:  59  06:54:44  -2.38  -1.87  -206.583443    2      9
iter:  60  06:54:55  -3.00  -2.06  -206.630235    2      6
iter:  61  06:55:07  -2.13  -2.06  -208.494810    3      11
iter:  62  06:55:18  -1.89  -1.77  -207.144924    3      10
iter:  63  06:55:29  -2.27  -1.94  -207.073400    3      9
[...]
iter: 121  07:06:45  -6.80  -3.99  -206.458497    1      2
iter: 122  07:06:56  -6.98  -4.08  -206.458560    1      2
iter: 123  07:07:08  -6.31  -4.09  -206.459200    2      3
iter: 124  07:07:19  -6.17  -3.87  -206.459173    2      3
iter: 125  07:07:32  -6.34  -3.99  -206.458414    2      3
iter: 126  07:07:46  -6.59  -4.16  -206.458816    2      2
iter: 127  07:08:00  -6.82  -4.09  -206.458557    2      2
iter: 128  07:08:16  -6.89  -4.12  -206.458575    2      2
iter: 129  07:08:27  -6.42  -4.14  -206.458717    2      2
iter: 130  07:08:38  -5.94  -4.00  -206.459456    2      3
iter: 131  07:08:49  -6.03  -3.72  -206.458934    2      3
iter: 132  07:09:01  -6.87  -4.27  -206.458615    2      2
iter: 133  07:09:13  -6.94  -4.31  -206.458763    2      2
iter: 134  07:09:25  -7.06  -4.18  -206.458704    2      2
iter: 135  07:09:35  -7.42  -4.24  -206.458560    1      1

Converged after 135 iterations.

Dipole moment: (-24.309487, -30.901052, -37.512162) |e|*Ang

Energy contributions relative to reference atoms: (reference = -479224.937077)

Kinetic:       +176.329081
Potential:     -180.599265
External:        +0.000000
XC:            -212.780229
Entropy (-ST):   -1.408170
Local:          +11.295938
Free energy:   -207.162645
Extrapolated:  -206.458560

Fermi level: 3.83799

 Band  Eigenvalues  Occupancy
    0    -20.83913    2.00000
    1    -20.77802    2.00000
    2    -20.68099    2.00000
    3    -20.63114    2.00000
    4    -20.42291    2.00000
    5    -20.40834    2.00000
    6    -20.37784    2.00000
    7    -20.37011    2.00000
    8    -20.34469    2.00000
    9    -20.34120    2.00000
   10    -20.33012    2.00000
   11    -20.29164    2.00000
   12    -20.27225    2.00000
   13    -20.21307    2.00000
   14    -20.20778    2.00000
   15    -20.18132    2.00000
   16    -20.16728    2.00000
   17    -20.16217    2.00000
   18    -20.13907    2.00000
   19    -20.11965    2.00000
   20    -19.01743    2.00000
   21    -19.01074    2.00000
   22    -14.50481    2.00000
   23    -14.48852    2.00000
   24     -4.28617    2.00000
   25     -4.19699    2.00000
   26     -4.03041    2.00000
   27     -3.95793    2.00000
   28     -3.72303    2.00000
   29     -3.52828    2.00000
   30     -3.49926    2.00000
   31     -3.44236    2.00000
   32     -3.33701    2.00000
   33     -3.16626    2.00000
   34     -2.73325    2.00000
   35     -2.69993    2.00000
   36     -2.62261    2.00000
   37     -2.58959    2.00000
   38     -2.57327    2.00000
   39     -2.47131    2.00000
   40     -2.46652    2.00000
   41     -2.41859    2.00000
   42     -2.40747    2.00000
   43     -2.40160    2.00000
   44     -2.39505    2.00000
   45     -2.36230    2.00000
   46     -2.33097    2.00000
   47     -2.31635    2.00000
   48     -2.31199    2.00000
   49     -2.29868    2.00000
   50     -2.25076    2.00000
   51     -2.22794    2.00000
   52     -2.21675    2.00000
   53     -2.19803    2.00000
   54     -2.19294    2.00000
   55     -2.18882    2.00000
   56     -2.18617    2.00000
   57     -2.17660    2.00000
   58     -2.13910    2.00000
   59     -2.11032    2.00000
[...]
  189     16.26042    0.00000
  190     16.41183    0.00000
  191     16.44732    0.00000
  192     16.49849    0.00000
  193     16.84231    0.00000
  194     16.85904    0.00000
  195     16.90819    0.00000
  196     16.95389    0.00000
  197     16.99237    0.00000
  198     17.06937    0.00000
  199     17.10947    0.00000
  200     17.32600    0.00000
  201     17.40304    0.00000
  202     17.43892    0.00000
  203     17.51238    0.00000