User:   murakami@tssm1.eng.shizuoka.ac.jp
Date:   Fri Mar 29 22:05:59 2019
Arch:   x86_64
Pid:    31289
Python: 3.6.5
gpaw:   /home/murakami/.local/lib/python3.6/site-packages/gpaw
_gpaw:  /home/murakami/.local/lib/python3.6/site-packages/
        _gpaw.cpython-36m-x86_64-linux-gnu.so
ase:    /home/murakami/.local/lib/python3.6/site-packages/ase (version 3.16.2)
numpy:  /home/murakami/.local/lib/python3.6/site-packages/numpy (version 1.15.2)
scipy:  /home/murakami/.local/lib/python3.6/site-packages/scipy (version 1.1.0)
units:  Angstrom and eV
cores:  1

Input parameters:
  kpts: {size: (1, 1, 1)}
  maxiter: 300
  xc: PBE

System changes: positions, numbers, cell, pbc, initial_charges, initial_magmoms

Initialize ...

Fe-setup:
  name: Iron
  id: 37abbd8d6c3c35915a9b583b742da910
  Z: 26
  valence: 8
  core: 18
  charge: 0.0
  file: /home/murakami/Public/gpaw-setups-0.9.20000/Fe.PBE.gz
  cutoffs: 1.06(comp), 2.06(filt), 2.67(core), lmax=2
  valence states:
                energy  radius
    4s(2.00)    -5.291   1.164
    4p(0.00)    -1.326   1.058
    3d(6.00)    -7.505   1.058
    *s          21.920   1.164
    *p          25.885   1.058
    *d          19.706   1.058

  Using partial waves for Fe as LCAO basis

O-setup:
  name: Oxygen
  id: 32ecd46bf208036f09c70b0ec9a88b78
  Z: 8
  valence: 6
  core: 2
  charge: 0.0
  file: /home/murakami/Public/gpaw-setups-0.9.20000/O.PBE.gz
  cutoffs: 0.67(comp), 1.17(filt), 0.83(core), lmax=2
  valence states:
                energy  radius
    2s(2.00)   -23.961   0.688
    2p(4.00)    -9.029   0.598
    *s           3.251   0.688
    *p          18.182   0.598
    *d           0.000   0.619

[...]

F-setup:
  name: Fluorine
  id: 9cd46ba2a61e170ad72278be75b55cc0
  Z: 9
  valence: 7
  core: 2
  charge: 0.0
  file: /home/murakami/Public/gpaw-setups-0.9.20000/F.PBE.gz
  cutoffs: 0.64(comp), 1.14(filt), 0.74(core), lmax=2
  valence states:
                energy  radius
    2s(2.00)   -29.898   0.635
    2p(5.00)   -11.110   0.635
    *s          -2.687   0.635
    *p          16.102   0.635
    *d           0.000   0.635

  Using partial waves for F as LCAO basis

Reference energy: -479224.937077

Spin-paired calculation

Occupation numbers:
  Fermi-Dirac: width=0.1000 eV

Convergence criteria:
  Maximum total energy change: 0.0005 eV / electron
  Maximum integral of absolute density change: 0.0001 electrons
  Maximum integral of absolute eigenstate change: 4e-08 eV^2
  Maximum number of iterations: 300

Symmetries present (total): 1

  ( 1  0  0)
  ( 0  1  0)
  ( 0  0  1)

1 k-point (Gamma)
1 k-point in the irreducible part of the Brillouin zone
       k-points in crystal coordinates                weights
   0:     0.00000000    0.00000000    0.00000000          1/1

Eigensolver
   Davidson(niter=1, smin=None, normalize=True)

Densities:
  Coarse grid: 16*104*32 grid
  Fine grid: 32*208*64 grid
  Total Charge: 0.000000

Density mixing:
  Method: separate
  Backend: pulay
  Linear mixing parameter: 0.05
  Mixing with 5 old densities
  Damping of long wave oscillations: 50

Hamiltonian:
  XC and Coulomb potentials evaluated on a 32*208*64 grid
  Using the PBE Exchange-Correlation functional
  Interpolation: tri-quintic (5. degree polynomial)
  Poisson solver: Jacobi solver with 5 multi-grid levels
    Coarsest grid: 2 x 13 x 4 points
    Stencil: 6*3+1=19 point O(h^6) finite-difference Laplacian
    Max iterations: 1000
    Tolerance: 2.000000e-10

Total number of cores used: 1

Number of atoms: 36
Number of atomic orbitals: 204
Number of bands in calculation: 204
Bands to converge: occupied states only
Number of valence electrons: 262

... initialized

Initializing position-dependent things.

Density initialized from atomic densities
Creating initial wave functions:
  204 bands from LCAO basis set

             /|  F    |
          / F |       |
         /    |  F    |
        /   Fe|       |
       /  F Fe|F      |
      /O    F Fe------.
    /  Fe F F   Fe  /
   / F     F   F   /
  /F  F   Fe      /
 *     F Fe  F   /
 |   F  F       /
 F Fe  /       /
 |    F   F   /
 | F Fe      /
 O  /   F   /
 | /   Fe  /
 Fe------*

Positions:
   0 Fe     0.000000    3.425973    3.428402    ( 0.0000,  0.0000,  0.0000)
   1 Fe     0.000000   17.123411    3.405553    ( 0.0000,  0.0000,  0.0000)
   2 Fe     0.000000   13.700665    0.027902    ( 0.0000,  0.0000,  0.0000)
   3 Fe     0.000000    6.848719    0.009448    ( 0.0000,  0.0000,  0.0000)
   4 Fe     1.626314    3.411629    0.000027    ( 0.0000,  0.0000,  0.0000)
   5 Fe     1.626314   17.137755    0.000027    ( 0.0000,  0.0000,  0.0000)
   6 Fe     1.626314   13.686321    3.396133    ( 0.0000,  0.0000,  0.0000)
   7 Fe     1.626314    6.863063    3.396133    ( 0.0000,  0.0000,  0.0000)
   8 Fe     0.000000    0.000000    0.111318    ( 0.0000,  0.0000,  0.0000)
   9 Fe     0.000000   10.274692    3.478712    ( 0.0000,  0.0000,  0.0000)
  10 Fe     1.626314    0.000000    3.208640    ( 0.0000,  0.0000,  0.0000)
  11 Fe     1.626314   10.397701    6.604746    ( 0.0000,  0.0000,  0.0000)
  12 O      0.000000    0.000000    2.135213    ( 0.0000,  0.0000,  0.0000)
  13 O      0.000000   10.274692    5.531319    ( 0.0000,  0.0000,  0.0000)
  14 F      0.000000    3.455769    1.380850    ( 0.0000,  0.0000,  0.0000)
  15 F      0.000000   17.272456    1.380850    ( 0.0000,  0.0000,  0.0000)
  16 F      0.000000   13.730461    4.776955    ( 0.0000,  0.0000,  0.0000)
  17 F      0.000000    6.818923    4.830865    ( 0.0000,  0.0000,  0.0000)
  18 F      0.000000    3.460146    5.429327    ( 0.0000,  0.0000,  0.0000)
  19 F      0.000000   17.089238    5.429327    ( 0.0000,  0.0000,  0.0000)
  20 F      0.000000   13.734838    2.033221    ( 0.0000,  0.0000,  0.0000)
  21 F      0.000000    6.814546    2.033221    ( 0.0000,  0.0000,  0.0000)
  22 F      1.626314    1.593009    6.767453    ( 0.0000,  0.0000,  0.0000)
  23 F      1.626314   19.144382    6.767331    ( 0.0000,  0.0000,  0.0000)
  24 F      1.626314   11.679694    3.371226    ( 0.0000,  0.0000,  0.0000)
  25 F      1.625836    8.869690    3.371226    ( 0.0000,  0.0000,  0.0000)
  26 F      1.626314    2.017621    3.475282    ( 0.0000,  0.0000,  0.0000)
  27 F      1.626314   18.531763    3.434678    ( 0.0000,  0.0000,  0.0000)
  28 F      1.626314   12.292313    0.038573    ( 0.0000,  0.0000,  0.0000)
  29 F      1.626314    8.257071    0.028310    ( 0.0000,  0.0000,  0.0000)
  30 F      1.626314    4.809789    3.406464    ( 0.0000,  0.0000,  0.0000)
  31 F      1.626314   15.739595    3.406464    ( 0.0000,  0.0000,  0.0000)
  32 F      1.626314   15.084481    0.010358    ( 0.0000,  0.0000,  0.0000)
  33 F      1.626314    5.262944    0.010358    ( 0.0000,  0.0000,  0.0000)
  34 F      0.000000    0.000000    4.718827    ( 0.0000,  0.0000,  0.0000)
  35 F      0.000000   10.274692    1.363747    ( 0.0000,  0.0000,  0.0000)

Unit cell:
           periodic     x           y           z      points  spacing
  1. axis:    yes    3.252628    0.000000    0.000000    16     0.2033
  2. axis:    yes    0.000000   20.549384    0.000000   104     0.1976
  3. axis:    yes    0.000000    0.000000    6.792211    32     0.2123

  Lengths:   3.252628  20.549384   6.792211
  Angles:   90.000000  90.000000  90.000000

Effective grid spacing dv^(1/3) = 0.2043

                     log10-error:    total        iterations:
           time      wfs    density  energy       fermi  poisson
iter:   1  22:06:24  +1.74   +inf  -213.023628    3      19
iter:   2  22:06:33  +0.21   +inf  -213.945258    3
iter:   3  22:06:41  -0.36   +inf  -214.212290    2
iter:   4  22:06:52  -0.61  -1.12  -212.798990    3      10
iter:   5  22:07:03  -0.54  -1.15  -272.532781    3      15
iter:   6  22:07:14  -0.42  -1.01  -245.832306    35     15
iter:   7  22:07:26  -0.45  -1.06  -228.578767    34     15
iter:   8  22:07:37  -0.47  -1.14  -218.482568    4      13
iter:   9  22:07:48  -0.44  -1.23  -252.416771    36     15
iter:  10  22:07:59  -0.52  -1.07  -224.274743    36     15
iter:  11  22:08:10  -0.42  -1.25  -222.770724    3      14
iter:  12  22:08:23  -1.04  -1.18  -210.488881    3      14
iter:  13  22:08:38  -1.39  -1.32  -206.964288    3      11
iter:  14  22:08:52  -1.38  -1.42  -208.473369    4      9
iter:  15  22:09:03  -1.45  -1.39  -206.598163    2      10
iter:  16  22:09:14  -2.05  -1.45  -206.474251    3      10
iter:  17  22:09:25  -1.34  -1.46  -241.836136    30     14
iter:  18  22:09:36  -0.99  -1.14  -208.693416    4      14
iter:  19  22:09:49  -1.49  -1.41  -206.719364    3      10
iter:  20  22:10:04  -1.46  -1.47  -207.551704    3      11
iter:  21  22:10:18  -1.44  -1.47  -206.507672    3      10
iter:  22  22:10:30  -1.76  -1.51  -206.932610    3      10
iter:  23  22:10:43  -1.51  -1.50  -207.466689    4      11
iter:  24  22:10:56  -1.51  -1.53  -206.498582    3      8
iter:  25  22:11:07  -1.45  -1.58  -208.750109    2      11
iter:  26  22:11:20  -1.64  -1.47  -221.350261    4      14
iter:  27  22:11:34  -1.28  -1.26  -207.692020    3      14
iter:  28  22:11:48  -1.43  -1.54  -215.821660    3      13
iter:  29  22:12:03  -1.46  -1.28  -206.476526    3      13
iter:  30  22:12:17  -1.98  -1.62  -206.112250    3      7
iter:  31  22:12:29  -2.29  -1.65  -205.794436    3      8
iter:  32  22:12:43  -2.02  -1.68  -211.003630    3      12
iter:  33  22:12:58  -1.61  -1.42  -207.917785    3      13
iter:  34  22:13:10  -1.55  -1.54  -219.581453    4      13
iter:  35  22:13:25  -1.38  -1.25  -205.874115    3      13
iter:  36  22:13:39  -1.99  -1.70  -205.740338    3      8
iter:  37  22:13:53  -2.33  -1.75  -206.184333    3      9
iter:  38  22:14:07  -1.99  -1.69  -209.125680    3      11
iter:  39  22:14:22  -1.73  -1.51  -208.107703    2      13
iter:  40  22:14:36  -1.57  -1.57  -215.101466    3      13
iter:  41  22:14:49  -1.49  -1.35  -206.522067    3      13
iter:  42  22:15:04  -2.02  -1.69  -205.709185    2      8
iter:  43  22:15:17  -2.91  -1.79  -205.699697    2      5
iter:  44  22:15:28  -2.34  -1.79  -208.023654    3      11
iter:  45  22:15:39  -1.84  -1.60  -209.252113    3      12
iter:  46  22:15:54  -1.53  -1.52  -218.681989    3      13
iter:  47  22:16:07  -1.51  -1.31  -205.895382    3      13
iter:  48  22:16:18  -2.06  -1.80  -205.803093    2      8
iter:  49  22:16:33  -2.55  -1.83  -205.792766    2      8
iter:  50  22:16:49  -2.37  -1.82  -207.253990    3      10
iter:  51  22:17:06  -1.77  -1.67  -212.405250    3      13
iter:  52  22:17:23  -1.51  -1.42  -212.174810    3      13
iter:  53  22:17:40  -1.61  -1.45  -205.934370    3      12
iter:  54  22:17:56  -2.18  -1.83  -205.939523    2      8
iter:  55  22:18:12  -2.69  -1.84  -205.720396    2      8
iter:  56  22:18:26  -2.66  -1.88  -206.673467    3      9
iter:  57  22:18:37  -1.75  -1.75  -213.714231    3      13
iter:  58  22:18:48  -1.48  -1.40  -210.477287    3      13
iter:  59  22:19:00  -1.78  -1.52  -205.850922    3      12
iter:  60  22:19:13  -2.05  -1.88  -206.652975    3      10
iter:  61  22:19:27  -2.10  -1.79  -205.769486    3      10
iter:  62  22:19:39  -2.87  -1.91  -205.992165    3      7
iter:  63  22:19:51  -1.87  -1.88  -212.752156    3      13
[...]
iter: 198  22:48:13  -5.29  -3.37  -205.562529    2      4
iter: 199  22:48:25  -5.75  -3.85  -205.562143    2      3
iter: 200  22:48:37  -6.02  -3.90  -205.561889    2      3
iter: 201  22:48:48  -6.07  -3.73  -205.561495    2      3
iter: 202  22:49:02  -6.17  -3.94  -205.562453    2      3
iter: 203  22:49:16  -6.26  -3.98  -205.562229    2      3
iter: 204  22:49:28  -6.36  -3.95  -205.562283    2      3
iter: 205  22:49:42  -5.85  -4.14  -205.562357    2      3
iter: 206  22:49:54  -6.02  -3.92  -205.562089    2      3
iter: 207  22:50:07  -6.34  -4.05  -205.562040    2      3
iter: 208  22:50:20  -6.20  -4.01  -205.561881    1      3
iter: 209  22:50:32  -6.52  -4.20  -205.562205    2      2
iter: 210  22:50:47  -6.65  -4.23  -205.562416    2      2
iter: 211  22:51:02  -6.79  -4.16  -205.562096    2      2
iter: 212  22:51:16  -7.49  -4.31  -205.562132    1      1

Converged after 212 iterations.

Dipole moment: (-25.037561, -31.169401, -34.789046) |e|*Ang

Energy contributions relative to reference atoms: (reference = -479224.937077)

Kinetic:       +182.023680
Potential:     -185.095153
External:        +0.000000
XC:            -213.118797
Entropy (-ST):   -1.435476
Local:          +11.345876
Free energy:   -206.279870
Extrapolated:  -205.562132

Fermi level: 3.82628

 Band  Eigenvalues  Occupancy
    0    -20.88013    2.00000
    1    -20.77231    2.00000
    2    -20.71529    2.00000
    3    -20.62205    2.00000
    4    -20.60867    2.00000
    5    -20.42448    2.00000
    6    -20.38828    2.00000
    7    -20.38082    2.00000
    8    -20.36446    2.00000
    9    -20.34525    2.00000
   10    -20.32244    2.00000
   11    -20.30560    2.00000
   12    -20.28902    2.00000
   13    -20.26237    2.00000
   14    -20.19639    2.00000
   15    -20.18509    2.00000
   16    -20.17832    2.00000
   17    -20.15334    2.00000
   18    -20.12733    2.00000
   19    -19.80634    2.00000
   20    -18.97333    2.00000
   21    -18.96850    2.00000
   22    -14.58432    2.00000
   23    -14.52272    2.00000
   24     -4.32822    2.00000
   25     -4.20890    2.00000
   26     -4.03768    2.00000
   27     -3.94669    2.00000
   28     -3.80649    2.00000
   29     -3.65501    2.00000
   30     -3.50794    2.00000
   31     -3.38361    2.00000
   32     -3.36314    2.00000
   33     -3.07972    2.00000
   34     -2.77646    2.00000
   35     -2.75442    2.00000
   36     -2.66924    2.00000
   37     -2.61840    2.00000
   38     -2.58030    2.00000
   39     -2.55553    2.00000
   40     -2.47974    2.00000
   41     -2.46070    2.00000
   42     -2.41395    2.00000
   43     -2.40715    2.00000
   44     -2.40154    2.00000
   45     -2.40054    2.00000
   46     -2.37367    2.00000
   47     -2.35167    2.00000
   48     -2.33431    2.00000
   49     -2.30156    2.00000
   50     -2.25099    2.00000
   51     -2.24896    2.00000
   52     -2.20921    2.00000
   53     -2.20623    2.00000
   54     -2.19108    2.00000
   55     -2.16100    2.00000
   56     -2.14791    2.00000
   57     -2.13198    2.00000
   58     -2.08145    2.00000
   59     -2.05183    2.00000
[...]
  189     16.26338    0.00000
  190     16.36167    0.00000
  191     16.43983    0.00000
  192     16.50989    0.00000
  193     16.78793    0.00000
  194     16.88947    0.00000
  195     16.93916    0.00000
  196     17.04380    0.00000
  197     17.05390    0.00000
  198     17.10671    0.00000
  199     17.22364    0.00000
  200     17.41901    0.00000
  201     17.42296    0.00000
  202     17.46314    0.00000
  203     17.59494    0.00000