User:   murakami@tssm1.eng.shizuoka.ac.jp
Date:   Fri Mar 29 18:34:47 2019
Arch:   x86_64
Pid:    31289
Python: 3.6.5
gpaw:   /home/murakami/.local/lib/python3.6/site-packages/gpaw
_gpaw:  /home/murakami/.local/lib/python3.6/site-packages/
        _gpaw.cpython-36m-x86_64-linux-gnu.so
ase:    /home/murakami/.local/lib/python3.6/site-packages/ase (version 3.16.2)
numpy:  /home/murakami/.local/lib/python3.6/site-packages/numpy (version 1.15.2)
scipy:  /home/murakami/.local/lib/python3.6/site-packages/scipy (version 1.1.0)
units:  Angstrom and eV
cores:  1

Input parameters:
  kpts: {size: (1, 1, 1)}
  maxiter: 300
  xc: PBE

System changes: positions, numbers, cell, pbc, initial_charges, initial_magmoms

Initialize ...

Fe-setup:
  name: Iron
  id: 37abbd8d6c3c35915a9b583b742da910
  Z: 26
  valence: 8
  core: 18
  charge: 0.0
  file: /home/murakami/Public/gpaw-setups-0.9.20000/Fe.PBE.gz
  cutoffs: 1.06(comp), 2.06(filt), 2.67(core), lmax=2
  valence states:
                energy  radius
    4s(2.00)    -5.291   1.164
    4p(0.00)    -1.326   1.058
    3d(6.00)    -7.505   1.058
    *s          21.920   1.164
    *p          25.885   1.058
    *d          19.706   1.058

  Using partial waves for Fe as LCAO basis

O-setup:
  name: Oxygen
  id: 32ecd46bf208036f09c70b0ec9a88b78
  Z: 8
  valence: 6
  core: 2
  charge: 0.0
  file: /home/murakami/Public/gpaw-setups-0.9.20000/O.PBE.gz
  cutoffs: 0.67(comp), 1.17(filt), 0.83(core), lmax=2
  valence states:
                energy  radius
    2s(2.00)   -23.961   0.688
    2p(4.00)    -9.029   0.598
    *s           3.251   0.688
    *p          18.182   0.598
    *d           0.000   0.619

[...]

F-setup:
  name: Fluorine
  id: 9cd46ba2a61e170ad72278be75b55cc0
  Z: 9
  valence: 7
  core: 2
  charge: 0.0
  file: /home/murakami/Public/gpaw-setups-0.9.20000/F.PBE.gz
  cutoffs: 0.64(comp), 1.14(filt), 0.74(core), lmax=2
  valence states:
                energy  radius
    2s(2.00)   -29.898   0.635
    2p(5.00)   -11.110   0.635
    *s          -2.687   0.635
    *p          16.102   0.635
    *d           0.000   0.635

  Using partial waves for F as LCAO basis

Reference energy: -479224.937077

Spin-paired calculation

Occupation numbers:
  Fermi-Dirac: width=0.1000 eV

Convergence criteria:
  Maximum total energy change: 0.0005 eV / electron
  Maximum integral of absolute density change: 0.0001 electrons
  Maximum integral of absolute eigenstate change: 4e-08 eV^2
  Maximum number of iterations: 300

Symmetries present (total): 1

  ( 1  0  0)
  ( 0  1  0)
  ( 0  0  1)

1 k-point (Gamma)
1 k-point in the irreducible part of the Brillouin zone
       k-points in crystal coordinates                weights
   0:     0.00000000    0.00000000    0.00000000          1/1

Eigensolver
   Davidson(niter=1, smin=None, normalize=True)

Densities:
  Coarse grid: 16*104*32 grid
  Fine grid: 32*208*64 grid
  Total Charge: 0.000000

Density mixing:
  Method: separate
  Backend: pulay
  Linear mixing parameter: 0.05
  Mixing with 5 old densities
  Damping of long wave oscillations: 50

Hamiltonian:
  XC and Coulomb potentials evaluated on a 32*208*64 grid
  Using the PBE Exchange-Correlation functional
  Interpolation: tri-quintic (5. degree polynomial)
  Poisson solver: Jacobi solver with 5 multi-grid levels
    Coarsest grid: 2 x 13 x 4 points
    Stencil: 12*3+1=37 point O(h^6) finite-difference Laplacian
    Max iterations: 1000
    Tolerance: 2.000000e-10

Total number of cores used: 1

Number of atoms: 36
Number of atomic orbitals: 204
Number of bands in calculation: 204
Bands to converge: occupied states only
Number of valence electrons: 262

... initialized

Initializing position-dependent things.

Density initialized from atomic densities
Creating initial wave functions:
  204 bands from LCAO basis set

                       F

[...]

                      F
               F Fee
             O       F
                  FFe
                  F
             Fe F     Fe
           FF    F  F
         F     Fee
             FF    F
         FeF
       F    F   F
           Fe
         F Fe  F
       O     Fe

       Fe

Positions:
   0 Fe    -0.025533    3.425973    3.405553    ( 0.0000,  0.0000,  0.0000)
   1 Fe    -0.025513   17.123411    3.402972    ( 0.0000,  0.0000,  0.0000)
   2 Fe    -0.000071   13.700665    0.009448    ( 0.0000,  0.0000,  0.0000)
   3 Fe    -0.000071    6.848719    0.009448    ( 0.0000,  0.0000,  0.0000)
   4 Fe     1.626314    3.404628    0.000027    ( 0.0000,  0.0000,  0.0000)
   5 Fe     1.626314   17.130754    0.000027    ( 0.0000,  0.0000,  0.0000)
   6 Fe     1.600852   13.679320    3.396133    ( 0.0000,  0.0000,  0.0000)
   7 Fe     1.600852    6.761617    3.396133    ( 0.0000,  0.0000,  0.0000)
   8 Fe    -0.000619    0.000000    0.082607    ( 0.0000,  0.0000,  0.0000)
   9 Fe    -0.025764   10.274692    3.436438    ( 0.0000,  0.0000,  0.0000)
  10 Fe     1.621868   -0.007085    3.208640    ( 0.0000,  0.0000,  0.0000)
  11 Fe     1.576796   10.267691    6.604746    ( 0.0000,  0.0000,  0.0000)
  12 O     -0.016009    0.000000    2.135213    ( 0.0000,  0.0000,  0.0000)
  13 O     -0.041471   10.274692    5.531319    ( 0.0000,  0.0000,  0.0000)
  14 F      0.005826    3.455700    1.380850    ( 0.0000,  0.0000,  0.0000)
  15 F     -0.010353   17.093615    1.380850    ( 0.0000,  0.0000,  0.0000)
  16 F     -0.035815   13.730461    4.776955    ( 0.0000,  0.0000,  0.0000)
  17 F     -0.035815    6.693140    4.776955    ( 0.0000,  0.0000,  0.0000)
  18 F     -0.040706    3.460146    5.429327    ( 0.0000,  0.0000,  0.0000)
  19 F     -0.040706   17.089238    5.429327    ( 0.0000,  0.0000,  0.0000)
  20 F     -0.015687   13.734838    2.092347    ( 0.0000,  0.0000,  0.0000)
  21 F     -0.015244    6.814546    2.033221    ( 0.0000,  0.0000,  0.0000)
  22 F      1.575577    1.398001    6.767331    ( 0.0000,  0.0000,  0.0000)
  23 F      1.575577   19.137381    6.767331    ( 0.0000,  0.0000,  0.0000)
  24 F      1.582124   11.672777    3.321391    ( 0.0000,  0.0000,  0.0000)
  25 F      1.601039    8.862689    3.371226    ( 0.0000,  0.0000,  0.0000)
  26 F      1.600563    2.010620    3.434678    ( 0.0000,  0.0000,  0.0000)
  27 F      1.600563   18.524762    3.434678    ( 0.0000,  0.0000,  0.0000)
  28 F      1.626025   12.285312    0.038573    ( 0.0000,  0.0000,  0.0000)
  29 F      1.626025    8.250070    0.038573    ( 0.0000,  0.0000,  0.0000)
  30 F      1.600774    4.802788    3.406464    ( 0.0000,  0.0000,  0.0000)
  31 F      1.600774   15.732594    3.406464    ( 0.0000,  0.0000,  0.0000)
  32 F      1.626236   15.077480    0.010358    ( 0.0000,  0.0000,  0.0000)
  33 F      1.619259    5.457932    0.010358    ( 0.0000,  0.0000,  0.0000)
  34 F     -0.035379    0.000000    4.718827    ( 0.0000,  0.0000,  0.0000)
  35 F     -0.025139   10.274758    1.322722    ( 0.0000,  0.0000,  0.0000)

Unit cell:
           periodic     x           y           z      points  spacing
  1. axis:    yes    3.252628   -0.014002    0.000000    16     0.2033
  2. axis:    yes    0.000000   20.549384    0.000000   104     0.1976
  3. axis:    yes   -0.050924    0.000000    6.792211    32     0.2123

  Lengths:   3.252658  20.549384   6.792402
  Angles:   90.000000  90.429558  90.246647

Effective grid spacing dv^(1/3) = 0.2043

                     log10-error:    total        iterations:
           time      wfs    density  energy       fermi  poisson
iter:   1  18:35:15  +1.74   +inf  -213.716343    3      19
iter:   2  18:35:24  +0.20   +inf  -214.609349    3
iter:   3  18:35:34  -0.38   +inf  -214.866361    2
iter:   4  18:35:50  -0.65  -1.12  -212.584245    3      9
iter:   5  18:36:06  -0.25  -1.16  -226.918283    37     10
iter:   6  18:36:23  -0.28  -1.17  -227.817318    4      13
iter:   7  18:36:40  -0.34  -1.17  -232.217902    4      14
iter:   8  18:36:55  -0.74  -1.15  -212.807864    4      14
iter:   9  18:37:10  -0.67  -1.32  -236.717948    4      14
iter:  10  18:37:27  -0.69  -1.14  -228.115496    3      15
iter:  11  18:37:43  -0.80  -1.26  -207.619526    3      13
iter:  12  18:37:57  -1.50  -1.44  -206.743067    3      10
iter:  13  18:38:09  -1.80  -1.47  -210.376412    4      11
iter:  14  18:38:27  -1.48  -1.36  -216.956392    4      13
iter:  15  18:38:44  -1.22  -1.26  -211.618024    2      13
iter:  16  18:39:04  -1.45  -1.34  -207.401836    3      12
iter:  17  18:39:21  -1.74  -1.47  -206.559844    3      9
iter:  18  18:39:37  -2.08  -1.51  -206.505351    2      8
iter:  19  18:39:55  -2.29  -1.52  -207.706883    3      10
iter:  20  18:40:14  -1.83  -1.48  -210.670185    3      12
iter:  21  18:40:26  -1.40  -1.38  -213.069962    3      13
iter:  22  18:40:38  -1.43  -1.34  -207.287833    3      12
iter:  23  18:40:51  -1.76  -1.52  -206.674721    3      9
iter:  24  18:41:03  -1.93  -1.56  -207.112171    2      9
iter:  25  18:41:14  -2.32  -1.54  -206.399505    3      9
iter:  26  18:41:30  -2.46  -1.59  -207.370285    3      10
iter:  27  18:41:42  -1.79  -1.56  -211.328457    3      13
iter:  28  18:41:53  -1.54  -1.40  -207.967919    3      12
iter:  29  18:42:06  -1.83  -1.54  -206.616730    3      11
iter:  30  18:42:18  -1.71  -1.66  -209.078258    3      11
iter:  31  18:42:30  -1.43  -1.58  -207.567791    3      12
iter:  32  18:42:41  -1.80  -1.64  -207.475936    3      11
iter:  33  18:42:54  -1.88  -1.63  -206.989460    3      11
iter:  34  18:43:06  -1.92  -1.76  -206.978767    3      10
iter:  35  18:43:18  -2.12  -1.75  -207.114609    3      11
iter:  36  18:43:30  -2.31  -1.72  -206.521275    3      9
iter:  37  18:43:42  -2.21  -1.86  -207.360655    3      10
iter:  38  18:43:54  -1.95  -1.76  -207.907314    2      11
iter:  39  18:44:06  -2.00  -1.71  -206.715503    2      10
iter:  40  18:44:19  -2.23  -1.88  -206.724113    2      9
iter:  41  18:44:34  -2.27  -1.86  -206.912106    2      10
iter:  42  18:44:50  -2.54  -1.83  -206.379595    2      9
iter:  43  18:45:07  -3.22  -1.96  -206.351614    2      5
iter:  44  18:45:22  -3.47  -1.97  -206.410428    2      7
iter:  45  18:45:40  -2.96  -1.96  -206.450212    2      8
iter:  46  18:45:58  -2.51  -1.96  -207.127158    2      10
iter:  47  18:46:18  -2.34  -1.84  -206.694367    3      10
iter:  48  18:46:32  -2.16  -2.00  -206.603384    3      7
iter:  49  18:46:49  -1.97  -2.04  -206.794476    3      7
iter:  50  18:47:03  -2.12  -1.95  -207.627248    3      11
iter:  51  18:47:15  -2.37  -1.82  -206.761191    3      11
iter:  52  18:47:27  -2.82  -1.98  -206.411649    2      9
iter:  53  18:47:38  -3.49  -2.14  -206.394119    2      5
iter:  54  18:47:50  -2.82  -2.16  -206.493381    2      6
iter:  55  18:48:02  -2.66  -2.11  -206.442171    2      6
iter:  56  18:48:13  -2.29  -2.18  -208.860995    3      11
iter:  57  18:48:25  -2.09  -1.72  -207.305563    3      12
iter:  58  18:48:38  -2.15  -1.92  -207.139252    2      11
iter:  59  18:48:55  -2.31  -1.92  -206.407436    2      9
iter:  60  18:49:09  -2.97  -2.28  -206.453844    2      6
iter:  61  18:49:24  -3.21  -2.29  -206.372357    2      6
iter:  62  18:49:37  -3.23  -2.38  -206.475645    2      8
iter:  63  18:49:49  -3.13  -2.35  -206.414556    2      8
[...]
iter: 115  19:01:04  -5.83  -3.74  -206.347354    2      4
iter: 116  19:01:18  -6.00  -3.95  -206.346747    1      3
iter: 117  19:01:31  -5.99  -3.76  -206.347557    2      4
iter: 118  19:01:46  -5.80  -3.99  -206.346757    2      3
iter: 119  19:02:00  -5.98  -3.96  -206.347518    2      4
iter: 120  19:02:11  -5.51  -3.98  -206.347382    2      3
iter: 121  19:02:22  -5.54  -3.53  -206.347279    1      3
iter: 122  19:02:34  -6.58  -4.30  -206.347104    1      2
iter: 123  19:02:48  -6.79  -4.50  -206.346949    2      2
iter: 124  19:03:02  -6.77  -4.45  -206.347347    2      2
iter: 125  19:03:15  -6.51  -4.40  -206.347278    2      2
iter: 126  19:03:29  -6.50  -4.05  -206.347042    2      2
iter: 127  19:03:42  -6.96  -4.49  -206.346991    1      2
iter: 128  19:03:56  -7.10  -4.44  -206.347183    2      2
iter: 129  19:04:09  -7.61  -4.80  -206.347081    1      1

Converged after 129 iterations.

Dipole moment: (-24.721200, -30.948243, -33.972987) |e|*Ang

Energy contributions relative to reference atoms: (reference = -479224.937077)

Kinetic:       +176.329843
Potential:     -180.507404
External:        +0.000000
XC:            -212.774434
Entropy (-ST):   -1.408948
Local:          +11.309388
Free energy:   -207.051555
Extrapolated:  -206.347081

Fermi level: 3.83911

 Band  Eigenvalues  Occupancy
    0    -20.86549    2.00000
    1    -20.79359    2.00000
    2    -20.64710    2.00000
    3    -20.61452    2.00000
    4    -20.56285    2.00000
    5    -20.41229    2.00000
    6    -20.36506    2.00000
    7    -20.34945    2.00000
    8    -20.34332    2.00000
    9    -20.33301    2.00000
   10    -20.32710    2.00000
   11    -20.29740    2.00000
   12    -20.27740    2.00000
   13    -20.24527    2.00000
   14    -20.21356    2.00000
   15    -20.18853    2.00000
   16    -20.17872    2.00000
   17    -20.16569    2.00000
   18    -20.14276    2.00000
   19    -19.98154    2.00000
   20    -19.10611    2.00000
   21    -19.01537    2.00000
   22    -14.49928    2.00000
   23    -14.40948    2.00000
   24     -4.30251    2.00000
   25     -4.21361    2.00000
   26     -4.01408    2.00000
   27     -3.95056    2.00000
   28     -3.75209    2.00000
   29     -3.55144    2.00000
   30     -3.49296    2.00000
   31     -3.39463    2.00000
   32     -3.34099    2.00000
   33     -3.18348    2.00000
   34     -2.78474    2.00000
   35     -2.71367    2.00000
   36     -2.65617    2.00000
   37     -2.58784    2.00000
   38     -2.52867    2.00000
   39     -2.49288    2.00000
   40     -2.47759    2.00000
   41     -2.43495    2.00000
   42     -2.41850    2.00000
   43     -2.40586    2.00000
   44     -2.40150    2.00000
   45     -2.39188    2.00000
   46     -2.32939    2.00000
   47     -2.31560    2.00000
   48     -2.30667    2.00000
   49     -2.27924    2.00000
   50     -2.26908    2.00000
   51     -2.24861    2.00000
   52     -2.21737    2.00000
   53     -2.21134    2.00000
   54     -2.20682    2.00000
   55     -2.18979    2.00000
   56     -2.16652    2.00000
   57     -2.13828    2.00000
   58     -2.12370    2.00000
   59     -2.08580    2.00000
[...]
  189     16.28349    0.00000
  190     16.41872    0.00000
  191     16.47065    0.00000
  192     16.49268    0.00000
  193     16.81875    0.00000
  194     16.86907    0.00000
  195     16.88756    0.00000
  196     16.96642    0.00000
  197     17.00431    0.00000
  198     17.07360    0.00000
  199     17.12251    0.00000
  200     17.34425    0.00000
  201     17.38943    0.00000
  202     17.41803    0.00000
  203     17.50456    0.00000