User:   murakami@tssm1.eng.shizuoka.ac.jp
Date:   Sat Mar 30 02:45:02 2019
Arch:   x86_64
Pid:    31289
Python: 3.6.5
gpaw:   /home/murakami/.local/lib/python3.6/site-packages/gpaw
_gpaw:  /home/murakami/.local/lib/python3.6/site-packages/
        _gpaw.cpython-36m-x86_64-linux-gnu.so
ase:    /home/murakami/.local/lib/python3.6/site-packages/ase (version 3.16.2)
numpy:  /home/murakami/.local/lib/python3.6/site-packages/numpy (version 1.15.2)
scipy:  /home/murakami/.local/lib/python3.6/site-packages/scipy (version 1.1.0)
units:  Angstrom and eV
cores:  1

Input parameters:
  kpts: {size: (1, 1, 1)}
  maxiter: 300
  xc: PBE

System changes: positions, numbers, cell, pbc, initial_charges, initial_magmoms

Initialize ...

Fe-setup:
  name: Iron
  id: 37abbd8d6c3c35915a9b583b742da910
  Z: 26
  valence: 8
  core: 18
  charge: 0.0
  file: /home/murakami/Public/gpaw-setups-0.9.20000/Fe.PBE.gz
  cutoffs: 1.06(comp), 2.06(filt), 2.67(core), lmax=2
  valence states:
                energy  radius
    4s(2.00)    -5.291   1.164
    4p(0.00)    -1.326   1.058
    3d(6.00)    -7.505   1.058
    *s          21.920   1.164
    *p          25.885   1.058
    *d          19.706   1.058

  Using partial waves for Fe as LCAO basis

O-setup:
  name: Oxygen
  id: 32ecd46bf208036f09c70b0ec9a88b78
  Z: 8
  valence: 6
  core: 2
  charge: 0.0
  file: /home/murakami/Public/gpaw-setups-0.9.20000/O.PBE.gz
  cutoffs: 0.67(comp), 1.17(filt), 0.83(core), lmax=2
  valence states:
                energy  radius
    2s(2.00)   -23.961   0.688
    2p(4.00)    -9.029   0.598
    *s           3.251   0.688
    *p          18.182   0.598
    *d           0.000   0.619

[...]

F-setup:
  name: Fluorine
  id: 9cd46ba2a61e170ad72278be75b55cc0
  Z: 9
  valence: 7
  core: 2
  charge: 0.0
  file: /home/murakami/Public/gpaw-setups-0.9.20000/F.PBE.gz
  cutoffs: 0.64(comp), 1.14(filt), 0.74(core), lmax=2
  valence states:
                energy  radius
    2s(2.00)   -29.898   0.635
    2p(5.00)   -11.110   0.635
    *s          -2.687   0.635
    *p          16.102   0.635
    *d           0.000   0.635

  Using partial waves for F as LCAO basis

Reference energy: -479224.937077

Spin-paired calculation

Occupation numbers:
  Fermi-Dirac: width=0.1000 eV

Convergence criteria:
  Maximum total energy change: 0.0005 eV / electron
  Maximum integral of absolute density change: 0.0001 electrons
  Maximum integral of absolute eigenstate change: 4e-08 eV^2
  Maximum number of iterations: 300

Symmetries present (total): 1

  ( 1  0  0)
  ( 0  1  0)
  ( 0  0  1)

1 k-point (Gamma)
1 k-point in the irreducible part of the Brillouin zone
       k-points in crystal coordinates                weights
   0:     0.00000000    0.00000000    0.00000000          1/1

Eigensolver
   Davidson(niter=1, smin=None, normalize=True)

Densities:
  Coarse grid: 16*104*32 grid
  Fine grid: 32*208*64 grid
  Total Charge: 0.000000

Density mixing:
  Method: separate
  Backend: pulay
  Linear mixing parameter: 0.05
  Mixing with 5 old densities
  Damping of long wave oscillations: 50

Hamiltonian:
  XC and Coulomb potentials evaluated on a 32*208*64 grid
  Using the PBE Exchange-Correlation functional
  Interpolation: tri-quintic (5. degree polynomial)
  Poisson solver: Jacobi solver with 5 multi-grid levels
    Coarsest grid: 2 x 13 x 4 points
    Stencil: 6*3+1=19 point O(h^6) finite-difference Laplacian
    Max iterations: 1000
    Tolerance: 2.000000e-10

Total number of cores used: 1

Number of atoms: 36
Number of atomic orbitals: 204
Number of bands in calculation: 204
Bands to converge: occupied states only
Number of valence electrons: 262

... initialized

Initializing position-dependent things.

Density initialized from atomic densities
Creating initial wave functions:
  204 bands from LCAO basis set

             /|  F    |
          / F |       |
         /    |  F    |
        /   Fe|       |
       /  FFe |F      |
      / O     Fe------.
     /      F/       /
    /  Fe F F   Fe  /
   / F     F   F   /
  /F  F   /       Fe
 *     F Fe  F   /
 |      F    F  /
 F Fe  /       /
 |    F   F   /
 | F Fe      /
 O  /   F   /
 | /   Fe  /
 Fe------*

Positions:
   0 Fe     0.000000    3.425973    3.405553    ( 0.0000,  0.0000,  0.0000)
   1 Fe     0.000000   17.123411    3.405553    ( 0.0000,  0.0000,  0.0000)
   2 Fe    -0.003604   13.700665    0.009448    ( 0.0000,  0.0000,  0.0000)
   3 Fe     0.000000    6.848719    0.009448    ( 0.0000,  0.0000,  0.0000)
   4 Fe     1.626314    3.411629    0.000027    ( 0.0000,  0.0000,  0.0000)
   5 Fe     1.626314   17.137755    0.000027    ( 0.0000,  0.0000,  0.0000)
   6 Fe     1.626314   13.686321    3.396133    ( 0.0000,  0.0000,  0.0000)
   7 Fe     1.626314    6.863063    3.396133    ( 0.0000,  0.0000,  0.0000)
   8 Fe     0.000000    0.000000    0.082607    ( 0.0000,  0.0000,  0.0000)
   9 Fe     0.000000   10.274692    3.478712    ( 0.0000,  0.0000,  0.0000)
  10 Fe     1.626314    0.000000    3.208640    ( 0.0000,  0.0000,  0.0000)
  11 Fe     1.626314   10.274692    6.604746    ( 0.0000,  0.0000,  0.0000)
  12 O      0.000000    0.000000    2.135213    ( 0.0000,  0.0000,  0.0000)
  13 O      0.027524   10.274692    5.531319    ( 0.0000,  0.0000,  0.0000)
  14 F      0.000000    3.455769    1.380850    ( 0.0000,  0.0000,  0.0000)
  15 F      0.000000   17.004924    1.380850    ( 0.0000,  0.0000,  0.0000)
  16 F      0.000000   13.730461    4.776955    ( 0.0000,  0.0000,  0.0000)
  17 F      0.000000    6.818923    4.776955    ( 0.0000,  0.0000,  0.0000)
  18 F      0.000000    3.460146    5.429327    ( 0.0000,  0.0000,  0.0000)
  19 F      0.000000   17.089238    5.468891    ( 0.0000,  0.0000,  0.0000)
  20 F      0.000000   13.734838    2.033221    ( 0.0000,  0.0000,  0.0000)
  21 F     -0.003662    6.814546    2.033221    ( 0.0000,  0.0000,  0.0000)
  22 F      1.626314    1.405002    6.767331    ( 0.0000,  0.0000,  0.0000)
  23 F      1.626314   19.144382    6.767331    ( 0.0000,  0.0000,  0.0000)
  24 F      1.626314   11.679694    3.371226    ( 0.0000,  0.0000,  0.0000)
  25 F      1.626314    8.869690    3.371226    ( 0.0000,  0.0000,  0.0000)
  26 F      1.626314    2.017621    3.434678    ( 0.0000,  0.0000,  0.0000)
  27 F      1.626314   18.531763    3.434678    ( 0.0000,  0.0000,  0.0000)
  28 F      1.626314   12.292313    0.038573    ( 0.0000,  0.0000,  0.0000)
  29 F      1.626314    8.257071    0.038573    ( 0.0000,  0.0000,  0.0000)
  30 F      1.626314    4.809789    3.406464    ( 0.0000,  0.0000,  0.0000)
  31 F      1.626314   15.739595    3.406464    ( 0.0000,  0.0000,  0.0000)
  32 F      1.626314   15.084481    0.010358    ( 0.0000,  0.0000,  0.0000)
  33 F      1.626314    5.464903    0.010358    ( 0.0000,  0.0000,  0.0000)
  34 F      0.000000    0.000000    4.718827    ( 0.0000,  0.0000,  0.0000)
  35 F      0.000000   10.274692    1.322722    ( 0.0000,  0.0000,  0.0000)

Unit cell:
           periodic     x           y           z      points  spacing
  1. axis:    yes    3.252628    0.000000    0.000000    16     0.2033
  2. axis:    yes    0.000000   20.549384    0.000000   104     0.1976
  3. axis:    yes    0.000000    0.000000    6.792211    32     0.2123

  Lengths:   3.252628  20.549384   6.792211
  Angles:   90.000000  90.000000  90.000000

Effective grid spacing dv^(1/3) = 0.2043

                     log10-error:    total        iterations:
           time      wfs    density  energy       fermi  poisson
iter:   1  02:45:27  +1.74   +inf  -213.409756    3      19
iter:   2  02:45:35  +0.20   +inf  -214.306788    3
iter:   3  02:45:43  -0.38   +inf  -214.565712    2
iter:   4  02:45:54  -0.64  -1.12  -212.320425    3      9
iter:   5  02:46:05  -0.26  -1.16  -227.278985    34     10
iter:   6  02:46:15  -0.23  -1.16  -267.848092    32     15
iter:   7  02:46:26  -0.32  -1.08  -229.362240    35     15
iter:   8  02:46:37  -0.59  -1.17  -213.326618    3      14
iter:   9  02:46:48  -0.52  -1.31  -249.296997    35     15
iter:  10  02:46:59  -0.62  -1.15  -220.222105    4      14
iter:  11  02:47:10  -0.91  -1.24  -208.825837    3      13
iter:  12  02:47:20  -1.38  -1.39  -206.839449    3      11
iter:  13  02:47:31  -1.63  -1.45  -206.415085    3      9
iter:  14  02:47:43  -1.94  -1.47  -208.932033    3      11
iter:  15  02:47:53  -1.51  -1.40  -209.442797    3      13
iter:  16  02:48:04  -1.51  -1.39  -208.481948    3      12
iter:  17  02:48:15  -1.49  -1.43  -213.056761    4      13
iter:  18  02:48:25  -1.37  -1.32  -206.954745    4      13
iter:  19  02:48:36  -1.73  -1.49  -207.046643    3      9
iter:  20  02:48:47  -2.10  -1.49  -206.433899    3      9
iter:  21  02:48:58  -2.16  -1.54  -207.704300    3      11
iter:  22  02:49:09  -1.79  -1.50  -210.882459    4      12
iter:  23  02:49:20  -1.46  -1.43  -207.135475    3      12
iter:  24  02:49:31  -1.41  -1.61  -207.470458    3      11
iter:  25  02:49:42  -1.44  -1.57  -208.012414    3      11
iter:  26  02:49:53  -1.46  -1.60  -208.979945    3      12
iter:  27  02:50:03  -1.76  -1.53  -206.847137    3      11
iter:  28  02:50:14  -2.21  -1.65  -206.370490    3      10
iter:  29  02:50:24  -2.20  -1.72  -206.497211    3      9
iter:  30  02:50:35  -2.16  -1.71  -206.997690    3      8
iter:  31  02:50:45  -2.05  -1.67  -206.696278    3      10
iter:  32  02:50:56  -1.95  -1.77  -206.954352    3      10
iter:  33  02:51:07  -1.64  -1.76  -210.961510    3      12
iter:  34  02:51:17  -1.52  -1.48  -207.469702    3      12
iter:  35  02:51:28  -1.90  -1.72  -206.498526    2      10
iter:  36  02:51:38  -2.13  -1.84  -206.417250    3      8
iter:  37  02:51:49  -2.65  -1.85  -206.298285    2      10
iter:  38  02:51:59  -2.77  -1.88  -206.398420    3      9
iter:  39  02:52:10  -2.06  -1.86  -208.554075    3      11
iter:  40  02:52:21  -1.79  -1.62  -206.940178    3      12
iter:  41  02:52:31  -2.25  -1.80  -206.297055    3      10
iter:  42  02:52:42  -2.62  -1.90  -206.258367    3      7
iter:  43  02:52:53  -2.95  -1.93  -206.295568    2      8
iter:  44  02:53:04  -3.17  -1.91  -206.208580    2      8
iter:  45  02:53:14  -2.02  -1.94  -209.929970    3      12
iter:  46  02:53:25  -1.77  -1.55  -206.377496    3      12
iter:  47  02:53:36  -2.27  -1.93  -206.598153    3      7
iter:  48  02:53:48  -2.31  -1.89  -206.502524    2      9
iter:  49  02:54:01  -2.44  -1.93  -206.928237    2      11
iter:  50  02:54:13  -2.45  -1.83  -206.290073    2      10
iter:  51  02:54:26  -2.86  -1.98  -206.217032    3      8
iter:  52  02:54:36  -2.24  -2.09  -206.507948    3      7
iter:  53  02:54:47  -2.13  -1.96  -206.705559    3      10
iter:  54  02:54:58  -2.33  -1.93  -206.425935    2      10
iter:  55  02:55:08  -2.56  -2.07  -206.358236    3      9
iter:  56  02:55:19  -2.08  -2.18  -207.597777    2      11
iter:  57  02:55:29  -2.07  -1.81  -206.139624    2      10
iter:  58  02:55:41  -3.00  -2.26  -206.134841    2      6
iter:  59  02:55:51  -3.17  -2.29  -206.180821    2      6
iter:  60  02:56:01  -3.10  -2.29  -206.189159    2      7
iter:  61  02:56:12  -2.80  -2.27  -206.329812    2      8
iter:  62  02:56:22  -2.39  -2.22  -206.863495    2      10
iter:  63  02:56:33  -2.38  -1.98  -206.289788    2      10
[...]
iter: 131  03:11:12  -5.60  -3.73  -206.095098    2      3
iter: 132  03:11:22  -5.66  -3.62  -206.095511    2      4
iter: 133  03:11:33  -5.11  -3.94  -206.100017    2      4
iter: 134  03:11:44  -5.05  -3.21  -206.096114    2      4
iter: 135  03:11:54  -5.65  -3.93  -206.095447    2      3
iter: 136  03:12:05  -6.01  -3.96  -206.095465    2      2
iter: 137  03:12:15  -6.47  -4.19  -206.095706    2      2
iter: 138  03:12:26  -6.67  -4.11  -206.095907    2      2
iter: 139  03:12:36  -6.80  -4.15  -206.095600    2      2
iter: 140  03:12:47  -7.07  -4.19  -206.095705    1      2
iter: 141  03:12:57  -6.72  -4.25  -206.095654    2      2
iter: 142  03:13:08  -6.66  -4.14  -206.095482    2      2
iter: 143  03:13:18  -6.80  -4.18  -206.095795    2      2
iter: 144  03:13:29  -7.09  -4.20  -206.095659    2      2
iter: 145  03:13:39  -7.56  -4.31  -206.095788    2      2

Converged after 145 iterations.

Dipole moment: (-25.572886, -31.042682, -33.938038) |e|*Ang

Energy contributions relative to reference atoms: (reference = -479224.937077)

Kinetic:       +175.340773
Potential:     -179.532347
External:        +0.000000
XC:            -212.554081
Entropy (-ST):   -1.406119
Local:          +11.352926
Free energy:   -206.798847
Extrapolated:  -206.095788

Fermi level: 3.83717

 Band  Eigenvalues  Occupancy
    0    -20.78824    2.00000
    1    -20.77778    2.00000
    2    -20.64204    2.00000
    3    -20.62151    2.00000
    4    -20.41370    2.00000
    5    -20.39740    2.00000
    6    -20.38295    2.00000
    7    -20.35090    2.00000
    8    -20.34450    2.00000
    9    -20.33307    2.00000
   10    -20.32961    2.00000
   11    -20.32501    2.00000
   12    -20.26700    2.00000
   13    -20.24040    2.00000
   14    -20.20686    2.00000
   15    -20.19384    2.00000
   16    -20.18618    2.00000
   17    -20.17828    2.00000
   18    -20.16648    2.00000
   19    -20.14264    2.00000
   20    -19.02208    2.00000
   21    -19.01804    2.00000
   22    -14.50634    2.00000
   23    -14.50629    2.00000
   24     -4.27951    2.00000
   25     -4.19020    2.00000
   26     -4.01664    2.00000
   27     -3.94429    2.00000
   28     -3.72229    2.00000
   29     -3.53761    2.00000
   30     -3.49061    2.00000
   31     -3.44644    2.00000
   32     -3.32980    2.00000
   33     -3.15323    2.00000
   34     -2.72347    2.00000
   35     -2.69795    2.00000
   36     -2.61066    2.00000
   37     -2.56769    2.00000
   38     -2.48222    2.00000
   39     -2.47063    2.00000
   40     -2.45292    2.00000
   41     -2.41386    2.00000
   42     -2.39691    2.00000
   43     -2.39533    2.00000
   44     -2.39294    2.00000
   45     -2.37059    2.00000
   46     -2.33472    2.00000
   47     -2.32795    2.00000
   48     -2.31660    2.00000
   49     -2.29746    2.00000
   50     -2.24627    2.00000
   51     -2.22151    2.00000
   52     -2.21577    2.00000
   53     -2.19742    2.00000
   54     -2.19215    2.00000
   55     -2.19127    2.00000
   56     -2.18363    2.00000
   57     -2.18228    2.00000
   58     -2.14364    2.00000
   59     -2.11508    2.00000
[...]
  189     16.29206    0.00000
  190     16.43482    0.00000
  191     16.45758    0.00000
  192     16.47409    0.00000
  193     16.81046    0.00000
  194     16.88376    0.00000
  195     16.91014    0.00000
  196     16.97639    0.00000
  197     16.99708    0.00000
  198     17.08904    0.00000
  199     17.12037    0.00000
  200     17.33488    0.00000
  201     17.38554    0.00000
  202     17.42238    0.00000
  203     17.46164    0.00000