User:   murakami@tssm1.eng.shizuoka.ac.jp
Date:   Sat Mar 30 02:14:54 2019
Arch:   x86_64
Pid:    31289
Python: 3.6.5
gpaw:   /home/murakami/.local/lib/python3.6/site-packages/gpaw
_gpaw:  /home/murakami/.local/lib/python3.6/site-packages/
        _gpaw.cpython-36m-x86_64-linux-gnu.so
ase:    /home/murakami/.local/lib/python3.6/site-packages/ase (version 3.16.2)
numpy:  /home/murakami/.local/lib/python3.6/site-packages/numpy (version 1.15.2)
scipy:  /home/murakami/.local/lib/python3.6/site-packages/scipy (version 1.1.0)
units:  Angstrom and eV
cores:  1

Input parameters:
  kpts: {size: (1, 1, 1)}
  maxiter: 300
  xc: PBE

System changes: positions, numbers, cell, pbc, initial_charges, initial_magmoms

Initialize ...

Fe-setup:
  name: Iron
  id: 37abbd8d6c3c35915a9b583b742da910
  Z: 26
  valence: 8
  core: 18
  charge: 0.0
  file: /home/murakami/Public/gpaw-setups-0.9.20000/Fe.PBE.gz
  cutoffs: 1.06(comp), 2.06(filt), 2.67(core), lmax=2
  valence states:
                energy  radius
    4s(2.00)    -5.291   1.164
    4p(0.00)    -1.326   1.058
    3d(6.00)    -7.505   1.058
    *s          21.920   1.164
    *p          25.885   1.058
    *d          19.706   1.058

  Using partial waves for Fe as LCAO basis

O-setup:
  name: Oxygen
  id: 32ecd46bf208036f09c70b0ec9a88b78
  Z: 8
  valence: 6
  core: 2
  charge: 0.0
  file: /home/murakami/Public/gpaw-setups-0.9.20000/O.PBE.gz
  cutoffs: 0.67(comp), 1.17(filt), 0.83(core), lmax=2
  valence states:
                energy  radius
    2s(2.00)   -23.961   0.688
    2p(4.00)    -9.029   0.598
    *s           3.251   0.688
    *p          18.182   0.598
    *d           0.000   0.619

[...]

F-setup:
  name: Fluorine
  id: 9cd46ba2a61e170ad72278be75b55cc0
  Z: 9
  valence: 7
  core: 2
  charge: 0.0
  file: /home/murakami/Public/gpaw-setups-0.9.20000/F.PBE.gz
  cutoffs: 0.64(comp), 1.14(filt), 0.74(core), lmax=2
  valence states:
                energy  radius
    2s(2.00)   -29.898   0.635
    2p(5.00)   -11.110   0.635
    *s          -2.687   0.635
    *p          16.102   0.635
    *d           0.000   0.635

  Using partial waves for F as LCAO basis

Reference energy: -479224.937077

Spin-paired calculation

Occupation numbers:
  Fermi-Dirac: width=0.1000 eV

Convergence criteria:
  Maximum total energy change: 0.0005 eV / electron
  Maximum integral of absolute density change: 0.0001 electrons
  Maximum integral of absolute eigenstate change: 4e-08 eV^2
  Maximum number of iterations: 300

Symmetries present (total): 1

  ( 1  0  0)
  ( 0  1  0)
  ( 0  0  1)

1 k-point (Gamma)
1 k-point in the irreducible part of the Brillouin zone
       k-points in crystal coordinates                weights
   0:     0.00000000    0.00000000    0.00000000          1/1

Eigensolver
   Davidson(niter=1, smin=None, normalize=True)

Densities:
  Coarse grid: 16*104*32 grid
  Fine grid: 32*208*64 grid
  Total Charge: 0.000000

Density mixing:
  Method: separate
  Backend: pulay
  Linear mixing parameter: 0.05
  Mixing with 5 old densities
  Damping of long wave oscillations: 50

Hamiltonian:
  XC and Coulomb potentials evaluated on a 32*208*64 grid
  Using the PBE Exchange-Correlation functional
  Interpolation: tri-quintic (5. degree polynomial)
  Poisson solver: Jacobi solver with 5 multi-grid levels
    Coarsest grid: 2 x 13 x 4 points
    Stencil: 8*3+1=25 point O(h^6) finite-difference Laplacian
    Max iterations: 1000
    Tolerance: 2.000000e-10

Total number of cores used: 1

Number of atoms: 36
Number of atomic orbitals: 204
Number of bands in calculation: 204
Bands to converge: occupied states only
Number of valence electrons: 262

... initialized

Initializing position-dependent things.

Density initialized from atomic densities
Creating initial wave functions:
  204 bands from LCAO basis set

                       F

                  F
                      F
               F Fee
             O       F
                  FFe
                  F
           F FeF      Fe
            F    F  F
         F     Fe
             FF    F
         FeF
       F    F   F
           Fe
         F     F
       O     Fe

       Fe

Positions:
   0 Fe     0.000000    3.425973    3.400415    ( 0.0000,  0.0000,  0.0000)
   1 Fe     0.000000   17.123411    3.379872    ( 0.0000,  0.0000,  0.0000)
   2 Fe     0.002882   13.700665   -0.011100    ( 0.0000,  0.0000,  0.0000)
   3 Fe     0.000000    6.848719   -0.000824    ( 0.0000,  0.0000,  0.0000)
   4 Fe     1.626314    3.484867   -0.005199    ( 0.0000,  0.0000,  0.0000)
   5 Fe     1.626314   17.137755   -0.025676    ( 0.0000,  0.0000,  0.0000)
   6 Fe     1.626314   13.686321    3.375606    ( 0.0000,  0.0000,  0.0000)
   7 Fe     1.626314    6.863063    3.385839    ( 0.0000,  0.0000,  0.0000)
   8 Fe     0.000000    0.000000    0.082607    ( 0.0000,  0.0000,  0.0000)
   9 Fe     0.000000   10.274692    3.463302    ( 0.0000,  0.0000,  0.0000)
  10 Fe     1.626314    0.000000    3.208640    ( 0.0000,  0.0000,  0.0000)
  11 Fe     1.626314   10.274692    6.589336    ( 0.0000,  0.0000,  0.0000)
  12 O      0.000000    0.000000    2.135213    ( 0.0000,  0.0000,  0.0000)
  13 O      0.000000   10.274692    5.515909    ( 0.0000,  0.0000,  0.0000)
  14 F      0.022066    3.455769    1.375667    ( 0.0000,  0.0000,  0.0000)
  15 F      0.000000   17.093615    1.355213    ( 0.0000,  0.0000,  0.0000)
  16 F      0.000000   13.730461    4.756362    ( 0.0000,  0.0000,  0.0000)
  17 F      0.000000    6.818923    4.766728    ( 0.0000,  0.0000,  0.0000)
  18 F      0.008480    3.460146    5.423227    ( 0.0000,  0.0000,  0.0000)
  19 F      0.000000   17.089238    5.403696    ( 0.0000,  0.0000,  0.0000)
  20 F      0.000000   13.734838    2.012622    ( 0.0000,  0.0000,  0.0000)
  21 F      0.000000    6.814546    2.023001    ( 0.0000,  0.0000,  0.0000)
  22 F      1.626314    1.405002    6.765224    ( 0.0000,  0.0000,  0.0000)
  23 F      1.626314   19.144382    6.738618    ( 0.0000,  0.0000,  0.0000)
  24 F      1.607140   11.679694    3.353708    ( 0.0000,  0.0000,  0.0000)
  25 F      1.626314    8.869690    3.357923    ( 0.0000,  0.0000,  0.0000)
  26 F      1.656066    2.017621    3.417518    ( 0.0000,  0.0000,  0.0000)
  27 F      1.626314   18.531763    3.406884    ( 0.0000,  0.0000,  0.0000)
  28 F      1.617428   12.292313    0.020137    ( 0.0000,  0.0000,  0.0000)
  29 F      1.626314    8.257071    0.040371    ( 0.0000,  0.0000,  0.0000)
  30 F      1.626314    4.809789    3.399250    ( 0.0000,  0.0000,  0.0000)
  31 F      1.626314   15.739595    3.382857    ( 0.0000,  0.0000,  0.0000)
  32 F      1.626314   15.084481   -0.012266    ( 0.0000,  0.0000,  0.0000)
  33 F      1.626314    5.464903    0.002162    ( 0.0000,  0.0000,  0.0000)
  34 F     -0.014422    0.000000    4.682482    ( 0.0000,  0.0000,  0.0000)
  35 F      0.000000   10.274692    1.307312    ( 0.0000,  0.0000,  0.0000)

Unit cell:
           periodic     x           y           z      points  spacing
  1. axis:    yes    3.252628    0.000000    0.000000    16     0.2033
  2. axis:    yes    0.000000   20.549384   -0.030820   104     0.1976
  3. axis:    yes    0.000000    0.000000    6.792211    32     0.2123

  Lengths:   3.252628  20.549407   6.792211
  Angles:   90.085932  90.000000  90.000000

Effective grid spacing dv^(1/3) = 0.2043

                     log10-error:    total        iterations:
           time      wfs    density  energy       fermi  poisson
iter:   1  02:15:19  +1.74   +inf  -213.516103    3      19
iter:   2  02:15:28  +0.20   +inf  -214.414868    3
iter:   3  02:15:37  -0.38   +inf  -214.674208    2
iter:   4  02:15:48  -0.64  -1.12  -212.437105    3      9
iter:   5  02:15:59  -0.27  -1.16  -232.184381    36     12
iter:   6  02:16:11  -0.29  -1.11  -270.653730    3      15
iter:   7  02:16:25  -0.25  -1.10  -222.278364    4      15
iter:   8  02:16:40  -0.47  -1.26  -220.256353    3      14
iter:   9  02:16:52  -0.49  -1.20  -255.533489    32     15
iter:  10  02:17:03  -0.59  -1.08  -216.311770    35     15
iter:  11  02:17:14  -0.71  -1.34  -207.568075    3      11
iter:  12  02:17:25  -1.32  -1.44  -206.957752    3      9
iter:  13  02:17:37  -1.62  -1.46  -210.357792    3      11
iter:  14  02:17:48  -1.50  -1.37  -213.319236    3      13
iter:  15  02:18:00  -1.26  -1.31  -225.668670    4      14
iter:  16  02:18:11  -1.22  -1.19  -207.232230    4      13
iter:  17  02:18:22  -1.63  -1.47  -206.589759    3      10
iter:  18  02:18:33  -1.94  -1.51  -206.816364    3      10
iter:  19  02:18:45  -1.96  -1.50  -208.690855    3      10
iter:  20  02:18:56  -1.67  -1.44  -209.391252    3      12
iter:  21  02:19:07  -1.36  -1.43  -231.794009    4      14
iter:  22  02:19:19  -1.14  -1.19  -207.874507    3      14
iter:  23  02:19:30  -1.62  -1.48  -206.396190    3      10
iter:  24  02:19:41  -2.09  -1.56  -206.400260    3      9
iter:  25  02:19:53  -2.27  -1.56  -208.189546    3      11
iter:  26  02:20:04  -1.73  -1.49  -209.337690    3      12
iter:  27  02:20:15  -1.51  -1.46  -215.335160    3      13
iter:  28  02:20:27  -1.48  -1.31  -206.995316    3      13
iter:  29  02:20:38  -1.86  -1.56  -206.426579    3      9
iter:  30  02:20:49  -2.25  -1.61  -206.617372    3      10
iter:  31  02:21:00  -2.19  -1.59  -207.124442    3      7
iter:  32  02:21:11  -1.74  -1.58  -213.220320    4      12
iter:  33  02:21:22  -1.39  -1.37  -212.625235    3      13
iter:  34  02:21:33  -1.50  -1.39  -207.434135    3      12
iter:  35  02:21:44  -2.04  -1.58  -206.412032    3      9
iter:  36  02:21:54  -2.42  -1.65  -206.391626    3      7
iter:  37  02:22:05  -2.88  -1.66  -206.793256    3      9
iter:  38  02:22:16  -1.86  -1.64  -214.100326    4      13
iter:  39  02:22:27  -1.35  -1.39  -213.211830    3      13
iter:  40  02:22:38  -1.54  -1.38  -206.693008    3      12
iter:  41  02:22:49  -2.04  -1.67  -206.713858    3      9
iter:  42  02:23:00  -2.21  -1.68  -207.187509    3      10
iter:  43  02:23:11  -2.34  -1.63  -206.493867    3      9
iter:  44  02:23:22  -1.77  -1.70  -218.742526    4      13
iter:  45  02:23:33  -1.24  -1.34  -217.920754    3      14
iter:  46  02:23:44  -1.40  -1.32  -206.965177    3      13
iter:  47  02:23:55  -2.01  -1.67  -206.454973    3      9
iter:  48  02:24:06  -2.33  -1.74  -206.485327    3      7
iter:  49  02:24:16  -2.37  -1.76  -206.660093    2      8
iter:  50  02:24:28  -2.05  -1.72  -209.042559    3      11
iter:  51  02:24:40  -1.52  -1.59  -219.150587    3      13
iter:  52  02:24:51  -1.36  -1.31  -207.829299    3      13
iter:  53  02:25:02  -1.84  -1.66  -206.844265    3      11
iter:  54  02:25:13  -2.18  -1.74  -206.582289    3      9
iter:  55  02:25:24  -2.48  -1.80  -206.408011    2      7
iter:  56  02:25:35  -2.52  -1.82  -207.515883    3      9
iter:  57  02:25:46  -1.77  -1.71  -215.461353    3      13
iter:  58  02:25:57  -1.49  -1.36  -206.642495    3      13
iter:  59  02:26:08  -2.14  -1.81  -206.857966    3      8
iter:  60  02:26:19  -2.26  -1.80  -207.022243    3      11
iter:  61  02:26:31  -2.22  -1.80  -206.978699    3      11
iter:  62  02:26:42  -2.20  -1.80  -206.516956    3      9
iter:  63  02:26:53  -2.18  -1.90  -206.937546    3      10
[...]
iter: 147  02:42:19  -5.34  -3.85  -206.184682    2      4
iter: 148  02:42:32  -5.28  -3.40  -206.185685    2      4
iter: 149  02:42:44  -5.79  -3.72  -206.185023    2      3
iter: 150  02:42:57  -6.05  -3.84  -206.185716    2      3
iter: 151  02:43:09  -6.27  -3.89  -206.185458    2      2
iter: 152  02:43:22  -6.80  -4.06  -206.185375    2      3
iter: 153  02:43:34  -6.32  -4.17  -206.184814    2      3
iter: 154  02:43:47  -6.08  -4.06  -206.185825    2      3
iter: 155  02:43:58  -6.23  -3.82  -206.185721    1      2
iter: 156  02:44:09  -6.61  -4.12  -206.185491    2      2
iter: 157  02:44:20  -6.75  -4.10  -206.185526    1      2
iter: 158  02:44:30  -6.89  -4.24  -206.185221    2      2
iter: 159  02:44:41  -6.64  -4.21  -206.185213    1      2
iter: 160  02:44:51  -6.97  -4.22  -206.185479    2      2
iter: 161  02:45:02  -7.63  -4.28  -206.185344    2      1

Converged after 161 iterations.

Dipole moment: (-25.513736, -30.987492, -34.561082) |e|*Ang

Energy contributions relative to reference atoms: (reference = -479224.937077)

Kinetic:       +175.438263
Potential:     -179.654153
External:        +0.000000
XC:            -212.582445
Entropy (-ST):   -1.407659
Local:          +11.316820
Free energy:   -206.889173
Extrapolated:  -206.185344

Fermi level: 3.83842

 Band  Eigenvalues  Occupancy
    0    -20.84430    2.00000
    1    -20.77843    2.00000
    2    -20.63707    2.00000
    3    -20.62008    2.00000
    4    -20.55019    2.00000
    5    -20.40737    2.00000
    6    -20.36536    2.00000
    7    -20.35683    2.00000
    8    -20.34398    2.00000
    9    -20.33818    2.00000
   10    -20.32728    2.00000
   11    -20.31160    2.00000
   12    -20.30038    2.00000
   13    -20.24250    2.00000
   14    -20.21283    2.00000
   15    -20.18493    2.00000
   16    -20.18109    2.00000
   17    -20.16315    2.00000
   18    -20.13793    2.00000
   19    -20.02123    2.00000
   20    -19.04190    2.00000
   21    -19.01428    2.00000
   22    -14.50354    2.00000
   23    -14.47613    2.00000
   24     -4.29812    2.00000
   25     -4.20710    2.00000
   26     -4.01868    2.00000
   27     -3.95323    2.00000
   28     -3.74484    2.00000
   29     -3.54363    2.00000
   30     -3.49829    2.00000
   31     -3.40185    2.00000
   32     -3.33888    2.00000
   33     -3.17944    2.00000
   34     -2.77217    2.00000
   35     -2.71130    2.00000
   36     -2.64799    2.00000
   37     -2.58243    2.00000
   38     -2.48099    2.00000
   39     -2.45023    2.00000
   40     -2.43812    2.00000
   41     -2.42440    2.00000
   42     -2.41171    2.00000
   43     -2.40699    2.00000
   44     -2.39317    2.00000
   45     -2.39126    2.00000
   46     -2.32750    2.00000
   47     -2.32233    2.00000
   48     -2.31139    2.00000
   49     -2.28692    2.00000
   50     -2.26399    2.00000
   51     -2.25276    2.00000
   52     -2.22323    2.00000
   53     -2.20444    2.00000
   54     -2.19441    2.00000
   55     -2.18779    2.00000
   56     -2.18417    2.00000
   57     -2.15057    2.00000
   58     -2.14403    2.00000
   59     -2.10147    2.00000
[...]
  189     16.24679    0.00000
  190     16.42973    0.00000
  191     16.43654    0.00000
  192     16.50033    0.00000
  193     16.84311    0.00000
  194     16.88137    0.00000
  195     16.94633    0.00000
  196     16.98615    0.00000
  197     16.99770    0.00000
  198     17.10353    0.00000
  199     17.12189    0.00000
  200     17.33964    0.00000
  201     17.39252    0.00000
  202     17.41865    0.00000
  203     17.45050    0.00000