User:   murakami@tssm1.eng.shizuoka.ac.jp
Date:   Fri Mar 29 20:05:05 2019
Arch:   x86_64
Pid:    31289
Python: 3.6.5
gpaw:   /home/murakami/.local/lib/python3.6/site-packages/gpaw
_gpaw:  /home/murakami/.local/lib/python3.6/site-packages/
        _gpaw.cpython-36m-x86_64-linux-gnu.so
ase:    /home/murakami/.local/lib/python3.6/site-packages/ase (version 3.16.2)
numpy:  /home/murakami/.local/lib/python3.6/site-packages/numpy (version 1.15.2)
scipy:  /home/murakami/.local/lib/python3.6/site-packages/scipy (version 1.1.0)
units:  Angstrom and eV
cores:  1

Input parameters:
  kpts: {size: (1, 1, 1)}
  maxiter: 300
  xc: PBE

System changes: positions, numbers, cell, pbc, initial_charges, initial_magmoms

Initialize ...

Fe-setup:
  name: Iron
  id: 37abbd8d6c3c35915a9b583b742da910
  Z: 26
  valence: 8
  core: 18
  charge: 0.0
  file: /home/murakami/Public/gpaw-setups-0.9.20000/Fe.PBE.gz
  cutoffs: 1.06(comp), 2.06(filt), 2.67(core), lmax=2
  valence states:
                energy  radius
    4s(2.00)    -5.291   1.164
    4p(0.00)    -1.326   1.058
    3d(6.00)    -7.505   1.058
    *s          21.920   1.164
    *p          25.885   1.058
    *d          19.706   1.058

  Using partial waves for Fe as LCAO basis

O-setup:
  name: Oxygen
  id: 32ecd46bf208036f09c70b0ec9a88b78
  Z: 8
  valence: 6
  core: 2
  charge: 0.0
  file: /home/murakami/Public/gpaw-setups-0.9.20000/O.PBE.gz
  cutoffs: 0.67(comp), 1.17(filt), 0.83(core), lmax=2
  valence states:
                energy  radius
    2s(2.00)   -23.961   0.688
    2p(4.00)    -9.029   0.598
    *s           3.251   0.688
    *p          18.182   0.598
    *d           0.000   0.619

[...]

F-setup:
  name: Fluorine
  id: 9cd46ba2a61e170ad72278be75b55cc0
  Z: 9
  valence: 7
  core: 2
  charge: 0.0
  file: /home/murakami/Public/gpaw-setups-0.9.20000/F.PBE.gz
  cutoffs: 0.64(comp), 1.14(filt), 0.74(core), lmax=2
  valence states:
                energy  radius
    2s(2.00)   -29.898   0.635
    2p(5.00)   -11.110   0.635
    *s          -2.687   0.635
    *p          16.102   0.635
    *d           0.000   0.635

  Using partial waves for F as LCAO basis

Reference energy: -479224.937077

Spin-paired calculation

Occupation numbers:
  Fermi-Dirac: width=0.1000 eV

Convergence criteria:
  Maximum total energy change: 0.0005 eV / electron
  Maximum integral of absolute density change: 0.0001 electrons
  Maximum integral of absolute eigenstate change: 4e-08 eV^2
  Maximum number of iterations: 300

Symmetries present (total): 1

  ( 1  0  0)
  ( 0  1  0)
  ( 0  0  1)

1 k-point (Gamma)
1 k-point in the irreducible part of the Brillouin zone
       k-points in crystal coordinates                weights
   0:     0.00000000    0.00000000    0.00000000          1/1

Eigensolver
   Davidson(niter=1, smin=None, normalize=True)

Densities:
  Coarse grid: 16*104*32 grid
  Fine grid: 32*208*64 grid
  Total Charge: 0.000000

Density mixing:
  Method: separate
  Backend: pulay
  Linear mixing parameter: 0.05
  Mixing with 5 old densities
  Damping of long wave oscillations: 50

Hamiltonian:
  XC and Coulomb potentials evaluated on a 32*208*64 grid
  Using the PBE Exchange-Correlation functional
  Interpolation: tri-quintic (5. degree polynomial)
  Poisson solver: Jacobi solver with 5 multi-grid levels
    Coarsest grid: 2 x 13 x 4 points
    Stencil: 8*3+1=25 point O(h^6) finite-difference Laplacian
    Max iterations: 1000
    Tolerance: 2.000000e-10

Total number of cores used: 1

Number of atoms: 36
Number of atomic orbitals: 204
Number of bands in calculation: 204
Bands to converge: occupied states only
Number of valence electrons: 262

... initialized

Initializing position-dependent things.

Density initialized from atomic densities
Creating initial wave functions:
  204 bands from LCAO basis set

                       F

[...]

                       F
                FFee
                     F
             O    F Fe
                  F
             Fe F     Fe
           FF    F  F
         F     Fee
             FF    F
         FeF
       F    F   F
           Fe
         F Fe F
       O     Fe

       Fe

Positions:
   0 Fe     0.019874    3.425973    3.405553    ( 0.0000,  0.0000,  0.0000)
   1 Fe     0.099335   17.123411    3.405553    ( 0.0000,  0.0000,  0.0000)
   2 Fe     0.059789   13.777252    0.009448    ( 0.0000,  0.0000,  0.0000)
   3 Fe     0.039730    6.848719    0.009448    ( 0.0000,  0.0000,  0.0000)
   4 Fe     1.646105    3.411629    0.000027    ( 0.0000,  0.0000,  0.0000)
   5 Fe     1.725732   17.137755    0.000027    ( 0.0000,  0.0000,  0.0000)
   6 Fe     1.705710   13.686321    3.396133    ( 0.0000,  0.0000,  0.0000)
   7 Fe     1.666127    6.863063    3.396133    ( 0.0000,  0.0000,  0.0000)
   8 Fe     0.005048    0.000000    0.082607    ( 0.0000,  0.0000,  0.0000)
   9 Fe     0.059604   10.274692    3.478712    ( 0.0000,  0.0000,  0.0000)
  10 Fe     1.626314    0.000000    3.208640    ( 0.0000,  0.0000,  0.0000)
  11 Fe     1.685919   10.274692    6.604746    ( 0.0000,  0.0000,  0.0000)
  12 O      0.000000    0.000000    2.135213    ( 0.0000,  0.0000,  0.0000)
  13 O      0.059604   10.274692    5.513353    ( 0.0000,  0.0000,  0.0000)
  14 F      0.020047    3.455769    1.380850    ( 0.0000,  0.0000,  0.0000)
  15 F      0.086945   17.093615    1.380850    ( 0.0000,  0.0000,  0.0000)
  16 F      0.079652   13.730461    4.788257    ( 0.0000,  0.0000,  0.0000)
  17 F      0.038706    6.672138    4.776955    ( 0.0000,  0.0000,  0.0000)
  18 F      0.020073    3.460146    5.429327    ( 0.0000,  0.0000,  0.0000)
  19 F      0.099136   17.089238    5.429327    ( 0.0000,  0.0000,  0.0000)
  20 F      0.079677   13.734838    2.033221    ( 0.0000,  0.0000,  0.0000)
  21 F      0.039532    6.814546    2.033221    ( 0.0000,  0.0000,  0.0000)
  22 F      1.634465    1.405002    6.767331    ( 0.0000,  0.0000,  0.0000)
  23 F      1.737372   19.144382    6.787361    ( 0.0000,  0.0000,  0.0000)
  24 F      1.694069   11.679694    3.371226    ( 0.0000,  0.0000,  0.0000)
  25 F      1.677768    8.869690    3.371226    ( 0.0000,  0.0000,  0.0000)
  26 F      1.669231    2.017621    3.434678    ( 0.0000,  0.0000,  0.0000)
  27 F      1.733819   18.531763    3.434678    ( 0.0000,  0.0000,  0.0000)
  28 F      1.697623   12.292313    0.038573    ( 0.0000,  0.0000,  0.0000)
  29 F      1.674214    8.257071    0.038573    ( 0.0000,  0.0000,  0.0000)
  30 F      1.654216    4.809789    3.406464    ( 0.0000,  0.0000,  0.0000)
  31 F      1.717621   15.739595    3.406464    ( 0.0000,  0.0000,  0.0000)
  32 F      1.713821   15.084481    0.010358    ( 0.0000,  0.0000,  0.0000)
  33 F      1.658016    5.464903    0.010358    ( 0.0000,  0.0000,  0.0000)
  34 F      0.000000    0.000000    4.718827    ( 0.0000,  0.0000,  0.0000)
  35 F      0.059604   10.274692    1.322722    ( 0.0000,  0.0000,  0.0000)

Unit cell:
           periodic     x           y           z      points  spacing
  1. axis:    yes    3.252628    0.000000    0.000000    16     0.2033
  2. axis:    yes    0.119209   20.549384    0.000000   104     0.1976
  3. axis:    yes    0.000000    0.000000    6.792211    32     0.2123

  Lengths:   3.252628  20.549730   6.792211
  Angles:   90.000000  90.000000  89.667625

Effective grid spacing dv^(1/3) = 0.2043

                     log10-error:    total        iterations:
           time      wfs    density  energy       fermi  poisson
iter:   1  20:05:36  +1.74   +inf  -213.535101    3      19
iter:   2  20:05:46  +0.20   +inf  -214.432807    3
iter:   3  20:05:56  -0.38   +inf  -214.692038    2
iter:   4  20:06:07  -0.64  -1.12  -212.400785    3      9
iter:   5  20:06:18  -0.24  -1.16  -228.658363    33     11
iter:   6  20:06:29  -0.26  -1.15  -265.568546    3      15
iter:   7  20:06:41  -0.30  -1.11  -231.496632    3      15
iter:   8  20:06:53  -0.55  -1.17  -215.795233    3      14
iter:   9  20:07:04  -0.56  -1.26  -246.913977    4      15
iter:  10  20:07:16  -0.60  -1.14  -223.577162    3      14
iter:  11  20:07:27  -0.92  -1.22  -208.619306    3      13
iter:  12  20:07:38  -1.37  -1.40  -207.072902    3      11
iter:  13  20:07:50  -1.62  -1.45  -206.575685    3      10
iter:  14  20:08:04  -1.97  -1.47  -209.008546    3      11
iter:  15  20:08:21  -1.53  -1.40  -209.162477    3      13
iter:  16  20:08:37  -1.52  -1.40  -213.872171    4      13
iter:  17  20:08:51  -1.43  -1.29  -207.165165    2      13
iter:  18  20:09:07  -1.54  -1.48  -208.184217    3      10
iter:  19  20:09:23  -1.63  -1.45  -206.386822    3      11
iter:  20  20:09:38  -2.23  -1.52  -206.406065    3      9
iter:  21  20:09:54  -2.23  -1.53  -207.359191    3      10
iter:  22  20:10:11  -1.75  -1.50  -217.184754    4      13
iter:  23  20:10:28  -1.38  -1.27  -208.557269    3      13
iter:  24  20:10:42  -1.65  -1.48  -206.727270    3      12
iter:  25  20:10:55  -1.54  -1.59  -210.858611    4      11
iter:  26  20:11:06  -1.19  -1.48  -208.426702    3      12
iter:  27  20:11:17  -1.69  -1.53  -206.855850    3      11
iter:  28  20:11:28  -1.84  -1.62  -206.883313    3      9
iter:  29  20:11:40  -2.07  -1.70  -207.110288    3      11
iter:  30  20:11:52  -1.74  -1.69  -210.159061    3      12
iter:  31  20:12:03  -1.51  -1.56  -210.061316    3      12
iter:  32  20:12:14  -1.35  -1.60  -207.535379    3      12
iter:  33  20:12:25  -1.64  -1.76  -209.995664    2      11
iter:  34  20:12:37  -1.82  -1.54  -206.551559    3      12
iter:  35  20:12:48  -2.50  -1.88  -206.353190    3      9
iter:  36  20:12:59  -2.56  -1.93  -207.730444    3      10
iter:  37  20:13:12  -1.87  -1.75  -208.557092    3      11
iter:  38  20:13:23  -1.83  -1.68  -206.451780    3      11
iter:  39  20:13:35  -1.87  -1.92  -212.448151    3      12
iter:  40  20:13:48  -1.62  -1.45  -207.139771    3      12
iter:  41  20:14:00  -2.14  -1.82  -206.558894    2      11
iter:  42  20:14:11  -2.65  -1.92  -206.512083    2      7
iter:  43  20:14:22  -2.31  -1.94  -206.982604    2      9
iter:  44  20:14:35  -2.11  -1.88  -207.711650    2      10
iter:  45  20:14:47  -1.71  -1.76  -219.242561    3      13
iter:  46  20:15:00  -1.41  -1.32  -209.284260    3      13
iter:  47  20:15:13  -1.79  -1.62  -206.471951    3      11
iter:  48  20:15:25  -2.49  -1.98  -206.491766    2      6
iter:  49  20:15:38  -2.65  -1.99  -206.654811    2      8
iter:  50  20:15:50  -2.58  -1.96  -206.787105    2      8
iter:  51  20:16:01  -1.88  -1.92  -215.959370    3      13
iter:  52  20:16:13  -1.47  -1.37  -212.860834    3      13
iter:  53  20:16:24  -1.72  -1.48  -206.429459    3      12
iter:  54  20:16:35  -2.43  -2.02  -206.449399    2      5
iter:  55  20:16:45  -2.82  -2.02  -206.524321    2      7
iter:  56  20:16:57  -2.84  -2.01  -206.491840    2      7
iter:  57  20:17:08  -1.89  -2.02  -217.058216    4      13
iter:  58  20:17:20  -1.51  -1.36  -213.293277    2      13
iter:  59  20:17:31  -1.69  -1.49  -206.728832    3      12
iter:  60  20:17:43  -2.28  -1.95  -206.480078    2      7
iter:  61  20:17:54  -2.90  -2.04  -206.459327    2      6
iter:  62  20:18:05  -2.99  -2.07  -206.460139    2      5
iter:  63  20:18:16  -1.90  -2.06  -215.646236    3      13
[...]
iter: 137  20:33:30  -5.80  -3.58  -206.182869    2      3
iter: 138  20:33:40  -6.10  -3.64  -206.182993    2      4
iter: 139  20:33:51  -5.29  -3.71  -206.182340    2      4
iter: 140  20:34:02  -5.12  -3.33  -206.182011    2      4
iter: 141  20:34:13  -5.45  -3.64  -206.181988    2      4
iter: 142  20:34:24  -5.38  -3.86  -206.183523    2      4
iter: 143  20:34:35  -5.57  -3.71  -206.183079    2      4
iter: 144  20:34:46  -5.96  -3.88  -206.182194    2      3
iter: 145  20:34:57  -6.76  -4.19  -206.182380    1      3
iter: 146  20:35:07  -6.75  -4.42  -206.182300    2      2
iter: 147  20:35:18  -6.87  -4.37  -206.182323    1      2
iter: 148  20:35:29  -6.88  -4.54  -206.182126    2      2
iter: 149  20:35:40  -6.80  -4.32  -206.182488    2      2
iter: 150  20:35:51  -7.25  -4.36  -206.182360    2      2
iter: 151  20:36:01  -7.48  -4.48  -206.182347    1      2

Converged after 151 iterations.

Dipole moment: (-24.571794, -31.050641, -35.330428) |e|*Ang

Energy contributions relative to reference atoms: (reference = -479224.937077)

Kinetic:       +175.461509
Potential:     -179.707569
External:        +0.000000
XC:            -212.552978
Entropy (-ST):   -1.403368
Local:          +11.318375
Free energy:   -206.884031
Extrapolated:  -206.182347

Fermi level: 3.83435

 Band  Eigenvalues  Occupancy
    0    -20.88535    2.00000
    1    -20.76711    2.00000
    2    -20.64656    2.00000
    3    -20.60849    2.00000
    4    -20.58834    2.00000
    5    -20.38893    2.00000
    6    -20.38713    2.00000
    7    -20.37270    2.00000
    8    -20.34513    2.00000
    9    -20.33596    2.00000
   10    -20.32972    2.00000
   11    -20.31552    2.00000
   12    -20.29982    2.00000
   13    -20.22883    2.00000
   14    -20.19832    2.00000
   15    -20.19099    2.00000
   16    -20.18626    2.00000
   17    -20.16869    2.00000
   18    -20.14536    2.00000
   19    -19.89184    2.00000
   20    -19.02576    2.00000
   21    -18.99887    2.00000
   22    -14.50140    2.00000
   23    -14.47074    2.00000
   24     -4.29863    2.00000
   25     -4.19646    2.00000
   26     -4.01662    2.00000
   27     -3.93479    2.00000
   28     -3.74413    2.00000
   29     -3.53701    2.00000
   30     -3.53046    2.00000
   31     -3.44310    2.00000
   32     -3.32595    2.00000
   33     -3.17129    2.00000
   34     -2.80059    2.00000
   35     -2.70208    2.00000
   36     -2.61910    2.00000
   37     -2.59959    2.00000
   38     -2.57477    2.00000
   39     -2.47627    2.00000
   40     -2.44908    2.00000
   41     -2.43544    2.00000
   42     -2.40283    2.00000
   43     -2.40014    2.00000
   44     -2.39148    2.00000
   45     -2.36867    2.00000
   46     -2.36635    2.00000
   47     -2.33220    2.00000
   48     -2.30942    2.00000
   49     -2.28410    2.00000
   50     -2.25730    2.00000
   51     -2.23440    2.00000
   52     -2.22176    2.00000
   53     -2.20493    2.00000
   54     -2.19535    2.00000
   55     -2.18156    2.00000
   56     -2.17431    2.00000
   57     -2.15113    2.00000
   58     -2.12376    2.00000
   59     -2.09443    2.00000
[...]
  189     16.26088    0.00000
  190     16.42605    0.00000
  191     16.45781    0.00000
  192     16.48811    0.00000
  193     16.79783    0.00000
  194     16.89026    0.00000
  195     16.93505    0.00000
  196     16.97138    0.00000
  197     17.01327    0.00000
  198     17.10632    0.00000
  199     17.13494    0.00000
  200     17.31657    0.00000
  201     17.40133    0.00000
  202     17.44900    0.00000
  203     17.49023    0.00000