 vasp.5.3.5 31Mar14 (build Aug 29 2014 19:41:47) complex

 executed on             LinuxIFC date 2019.01.21  17:34:34

 INCAR:
 POTCAR:    PAW_PBE Fe 06Sep2000
 POTCAR:    PAW_PBE O 08Apr2002
 POTCAR:    PAW_PBE F 08Apr2002
 POTCAR:    PAW_PBE Fe 06Sep2000
   VRHFIN =Fe:  d7 s1

   TITEL  = PAW_PBE Fe 06Sep2000
   POMASS =   55.847; ZVAL   =    8.000    mass and valenz
   ENMAX  =  267.882; ENMIN  =  200.911 eV

 POTCAR:    PAW_PBE O 08Apr2002
   VRHFIN =O: s2p4

   TITEL  = PAW_PBE O 08Apr2002
   POMASS =   16.000; ZVAL   =    6.000    mass and valenz
   ENMAX  =  400.000; ENMIN  =  300.000 eV

 POTCAR:    PAW_PBE F 08Apr2002
   VRHFIN =F: s2p5

   TITEL  = PAW_PBE F 08Apr2002
   POMASS =   18.998; ZVAL   =    7.000    mass and valenz
   ENMAX  =  400.000; ENMIN  =  300.000 eV

 Optimization of the real space projectors (new method)

 maximal supplied QI-value         = 16.25
 optimisation between [QCUT,QGAM] = [ 10.24, 20.48] = [ 29.35,117.42] Ry
 Optimized for a Real-space Cutoff    1.51 Angstroem

   l    n(q)    QCUT    max X(q) W(low)/X(q) W(high)/X(q)  e(spline)
   2      8    10.239    80.901    0.43E-03    0.67E-03    0.20E-06
   2      8    10.239    75.754    0.44E-03    0.68E-03    0.20E-06
   0      9    10.239    58.752    0.81E-04    0.41E-04    0.71E-07
   0      9    10.239    30.679    0.75E-04    0.39E-04    0.65E-07
   1      9    10.239    17.977    0.50E-04    0.16E-03    0.11E-06
   1      9    10.239    13.559    0.39E-04    0.13E-03    0.98E-07
 Optimization of the real space projectors (new method)

[...]

   l    n(q)    QCUT    max X(q) W(low)/X(q) W(high)/X(q)  e(spline)
   0      8    10.150    20.381    0.22E-03    0.32E-03    0.29E-06
   0      8    10.150    15.268    0.23E-03    0.35E-03    0.30E-06
   1      8    10.150     5.964    0.46E-03    0.53E-03    0.21E-06
   1      8    10.150     5.382    0.38E-03    0.45E-03    0.19E-06
 Optimization of the real space projectors (new method)

 maximal supplied QI-value         = 24.76
 optimisation between [QCUT,QGAM] = [ 10.15, 20.30] = [ 28.85,115.39] Ry
 Optimized for a Real-space Cutoff    1.38 Angstroem

   l    n(q)    QCUT    max X(q) W(low)/X(q) W(high)/X(q)  e(spline)
   0      8    10.150    14.049    0.15E-03    0.22E-03    0.24E-06
   0      8    10.150     8.945    0.21E-03    0.31E-03    0.30E-06
   1      8    10.150     7.086    0.42E-03    0.48E-03    0.23E-06
   1      8    10.150     6.747    0.37E-03    0.43E-03    0.21E-06
  PAW_PBE Fe 06Sep2000                  :
  PAW_PBE O 08Apr2002                   :
  PAW_PBE F 08Apr2002                   :

 POSCAR: Fe8 O2 F14
  positions in direct lattice
 exchange correlation table for  LEXCH =        8
   RHO(1)=    0.500       N(1)  =     2000
   RHO(2)=  100.500       N(2)  =     4000

 ion  position               nearest neighbor table
   1  0.247  0.249  0.746-  18 2.04  12 2.05  23 2.12  15 2.12  13 2.13  19 2.13
   2  0.247  0.751  0.246-  17 2.04  11 2.05  24 2.12  16 2.12  14 2.13  20 2.13
   3  0.515  0.245  0.499-  16 2.07   9 2.07  22 2.09  19 2.15  13 2.19  17 2.21   5 3.06
   4  0.515  0.755  0.999-  15 2.07  10 2.07  21 2.09  20 2.15  14 2.19  18 2.21   6 3.06
   5  0.754  0.231  0.265-   9 1.84  24 2.00  20 2.01  11 2.03  17 2.04  21 2.13   3 3.06
   6  0.754  0.769  0.765-  10 1.84  23 2.00  19 2.01  12 2.03  18 2.04  22 2.13   4 3.06
   7  0.990  0.241  0.997-  10 2.00  14 2.09  15 2.16  23 2.17  11 2.20  21 2.20
   8  0.990  0.759  0.497-   9 2.00  13 2.09  16 2.16  24 2.17  12 2.20  22 2.20
   9  0.779  0.058  0.417-   5 1.84   8 2.00   3 2.07
  10  0.779  0.942  0.917-   6 1.84   7 2.00   4 2.07
  11  0.014  0.058  0.183-   5 2.03   2 2.05   7 2.20
  12  0.014  0.942  0.683-   6 2.03   1 2.05   8 2.20
  13  0.222  0.449  0.571-   8 2.09   1 2.13   3 2.19
  14  0.222  0.551  0.071-   7 2.09   2 2.13   4 2.19
  15  0.279  0.052  0.922-   4 2.07   1 2.12   7 2.16
  16  0.279  0.948  0.422-   3 2.07   2 2.12   8 2.16
  17  0.482  0.454  0.316-   5 2.04   2 2.04   3 2.21
  18  0.482  0.546  0.816-   6 2.04   1 2.04   4 2.21
  19  0.523  0.036  0.674-   6 2.01   1 2.13   3 2.15
  20  0.523  0.964  0.174-   5 2.01   2 2.13   4 2.15
  21  0.722  0.443  0.091-   4 2.09   5 2.13   7 2.20
  22  0.722  0.557  0.591-   3 2.09   6 2.13   8 2.20
  23  0.973  0.457  0.820-   6 2.00   1 2.12   7 2.17
  24  0.973  0.543  0.320-   5 2.00   2 2.12   8 2.17

IMPORTANT INFORMATION: All symmetrisations will be switched off!
NOSYMM: (Re-)initialisation of all symmetry stuff for point group C_1.

 KPOINTS: Automatic mesh

Automatic generation of k-mesh.
Space group operators:
 irot       det(A)        alpha          n_x          n_y          n_z        tau_x        tau_y        tau_z
    1     1.000000     0.000000     1.000000     0.000000     0.000000     0.000000     0.000000     0.000000

 Subroutine IBZKPT returns following result:

 Found      8 irreducible k-points:

 Following reciprocal coordinates:
            Coordinates               Weight
  0.000000  0.000000  0.000000      1.000000
  0.500000  0.000000  0.000000      1.000000
  0.000000  0.500000  0.000000      1.000000
  0.500000  0.500000  0.000000      1.000000
 -0.000000  0.000000  0.500000      1.000000
  0.500000  0.000000  0.500000      1.000000
 -0.000000  0.500000  0.500000      1.000000
  0.500000  0.500000  0.500000      1.000000

 Following cartesian coordinates:
            Coordinates               Weight
  0.000000  0.000000  0.000000      1.000000
  0.087170  0.000000  0.000000      1.000000
  0.000000  0.104484  0.000000      1.000000
  0.087170  0.104484  0.000000      1.000000
  0.006329  0.000000  0.045939      1.000000
  0.093499  0.000000  0.045939      1.000000
  0.006329  0.104484  0.045939      1.000000
  0.093499  0.104484  0.045939      1.000000

 I would recommend the setting:
   dimension x,y,z NGX =    28 NGY =   23 NGZ =   53
 SYSTEM =  tssm
 POSCAR =  Fe8 O2 F14

 Startparameter for this run:
   NWRITE =      2    write-flag & timer
   PREC   = normal    normal or accurate (medium, high low for compatibility)
   ISTART =      0    job   : 0-new  1-cont  2-samecut
   ICHARG =      2    charge: 1-file 2-atom 10-const
   ISPIN  =      1    spin polarized calculation?
   LNONCOLLINEAR =      F non collinear calculations
   LSORBIT =      F    spin-orbit coupling
   INIWAV =      1    electr: 0-lowe 1-rand  2-diag
   LASPH  =      F    aspherical Exc in radial PAW
   METAGGA=      F    non-selfconsistent MetaGGA calc.

 Electronic Relaxation 1
   ENCUT  =  400.0 eV  29.40 Ry    5.42 a.u.   9.44  7.80 17.75*2*pi/ulx,y,z
   ENINI  =  400.0     initial cutoff
   ENAUG  =  613.6 eV  augmentation charge cutoff
   NELM   =    300;   NELMIN=  2; NELMDL=-12     # of ELM steps
   EDIFF  = 0.1E-03   stopping-criterion for ELM
   LREAL  =      T    real-space projection
   NLSPLINE    = F    spline interpolate recip. space projectors
   LCOMPAT=      F    compatible to vasp.4.4
   GGA_COMPAT  = T    GGA compatible to vasp.4.4-vasp.4.6
   LMAXPAW     = -100 max onsite density
   LMAXMIX     =    2 max onsite mixed and CHGCAR
   VOSKOWN=      0    Vosko Wilk Nusair interpolation
   ROPT   =   -0.00050  -0.00050  -0.00050
 Ionic relaxation
   EDIFFG = 0.1E-02   stopping-criterion for IOM
   NSW    =      1    number of steps for IOM
   NBLOCK =      1;   KBLOCK =      1    inner block; outer block
   IBRION =      1    ionic relax: 0-MD 1-quasi-New 2-CG
   NFREE  =      0    steps in history (QN), initial steepest desc. (CG)
   ISIF   =      2    stress and relaxation
   IWAVPR =     11    prediction:  0-non 1-charg 2-wave 3-comb
   ISYM   =      0    0-nonsym 1-usesym 2-fastsym
   LCORR  =      T    Harris-Foulkes like correction to forces

   POTIM  = 0.5000    time-step for ionic-motion
   TEIN   =    0.0    initial temperature
   TEBEG  =    0.0;   TEEND  =   0.0 temperature during run
   SMASS  =  -3.00    Nose mass-parameter (am)
   estimated Nose-frequenzy (Omega)   =  0.10E-29 period in steps =****** mass=  -0.766E-27a.u.
   SCALEE = 1.0000    scale energy and forces
   NPACO  =    256;   APACO  = 16.0  distance and # of slots for P.C.
   PSTRESS=    0.0 pullay stress

  Mass of Ions in am
   POMASS =  55.85 16.00 19.00
  Ionic Valenz
   ZVAL   =   8.00  6.00  7.00
  Atomic Wigner-Seitz radii
  virtual crystal weights
   VCA    =   1.00  1.00  1.00
   NELECT =     174.0000    total number of electrons
   NUPDOWN=      -1.0000    fix difference up-down

 DOS related values:
   EMIN   =  10.00;   EMAX   =-10.00  energy-range for DOS
   EFERMI =   0.00
   ISMEAR =     1;   SIGMA  =   0.20  broadening in eV -4-tet -1-fermi 0-gaus

 Electronic relaxation 2 (details)
   IALGO  =     48    algorithm
   LDIAG  =      T    sub-space diagonalisation (order eigenvalues)
   LSUBROT=      F    optimize rotation matrix (better conditioning)
   TURBO    =      0    0=normal 1=particle mesh
   IRESTART =      0    0=no restart 2=restart with 2 vectors
   NREBOOT  =      0    no. of reboots
   NMIN     =      0    reboot dimension
   EREF     =   0.00    reference energy to select bands
   IMIX   =      4    mixing-type and parameters
     AMIX     =   0.40;   BMIX     =  1.00
     AMIX_MAG =   1.60;   BMIX_MAG =  1.00
     AMIN     =   0.01
     WC   =   100.;   INIMIX=   1;  MIXPRE=   1;  MAXMIX= -45

 Intra band minimization:
   WEIMIN = 0.0010     energy-eigenvalue tresh-hold
   EBREAK =  0.24E-06  absolut break condition
   DEPER  =   0.30     relativ break condition

   TIME   =   0.40     timestep for ELM

  volume/ion in A,a.u.               =      12.45        84.00
  Fermi-wavevector in a.u.,A,eV,Ry     =   1.367164  2.583565 25.431145  1.869136
  Thomas-Fermi vector in A             =   2.493240

 Write flags
   LWAVE  =      F    write WAVECAR
   LCHARG =      T    write CHGCAR
   LVTOT  =      F    write LOCPOT, total local potential
   LVHAR  =      F    write LOCPOT, Hartree potential only
   LELF   =      F    write electronic localiz. function (ELF)
   LORBIT =      0    0 simple, 1 ext, 2 COOP (PROOUT)

 Dipole corrections
   LMONO  =      F    monopole corrections only (constant potential shift)
   LDIPOL =      F    correct potential (dipole corrections)
   IDIPOL =      0    1-x, 2-y, 3-z, 4-all directions
   EPSILON=  1.0000000 bulk dielectric constant

 Exchange correlation treatment:
   GGA     =    --    GGA type
   VOSKOWN=      0    Vosko Wilk Nusair interpolation
   LHFCALC =     F    Hartree Fock is set to
   LHFONE  =     F    Hartree Fock one center treatment
   AEXX    =    0.0000 exact exchange contribution

 Linear response parameters
   LEPSILON=     F    determine dielectric tensor
   LRPA    =     F    only Hartree local field effects (RPA)
   LNABLA  =     F    use nabla operator in PAW spheres
   LVEL    =     F    velocity operator in full k-point grid
   LINTERFAST=   F  fast interpolation
   KINTER  =     0    interpolate to denser k-point grid
   CSHIFT  =0.1000    complex shift for real part using Kramers Kronig
   OMEGAMAX=  -1.0    maximum frequency
   DEG_THRESHOLD= 0.2000000E-02 threshold for treating states as degnerate
   RTIME   =    0.100 relaxation time in fs

 Orbital magnetization related:
[...]

 First call to EWALD:  gamma=   0.265
 Maximum number of real-space cells 3x 4x 2
 Maximum number of reciprocal cells 2x 2x 4

 FEWALD executed in parallel

----------------------------------------- Iteration    1(   1)  ---------------------------------------

 eigenvalue-minimisations  :   832
 total energy-change (2. order) : 0.2127901E+04  (-0.6546021E+04)
 number of electron     174.0000000 magnetization
 augmentation part      174.0000000 magnetization

 Free energy of the ion-electron system (eV)
  alpha Z        PSCENC =       634.09262729
  Ewald energy   TEWEN  =    -10612.72848518
  -Hartree energ DENC   =     -4389.93247659
  -exchange      EXHF   =         0.00000000
  -V(xc)+E(xc)   XCENC  =       595.48706791
  PAW double counting   =     12680.77512887   -12817.41364524
  entropy T*S    EENTRO =        -0.08590439
  eigenvalues    EBANDS =      1186.43240379
  atomic energy  EATOM  =     14851.27451460
  free energy    TOTEN  =      2127.90123107 eV

  energy without entropy =     2127.98713546  energy(sigma->0) =     2127.92986586

[...]

 eigenvalue-minimisations  :   832
 total energy-change (2. order) :-0.1464405E+04  (-0.1649758E+04)
 number of electron     174.0000000 magnetization
 augmentation part      174.0000000 magnetization

[...]

 Broyden mixing:
  rms(total) = 0.38338E+01    rms(broyden)= 0.38193E+01
  rms(prec ) = 0.46297E+01
  weight for this iteration     100.00

[...]

 eigenvalues of (default mixing * dielectric matrix)
  average eigenvalue GAMMA=   0.3108
  0.3108

[...]

 eigenvalue-minimisations  :  1035
 total energy-change (2. order) : 0.2283471E-03  (-0.2892666E-04)
 number of electron     173.9999908 magnetization
 augmentation part       53.0406031 magnetization

 Broyden mixing:
  rms(total) = 0.22637E-01    rms(broyden)= 0.22616E-01
  rms(prec ) = 0.32439E-01
  weight for this iteration     100.00

 eigenvalues of (default mixing * dielectric matrix)
  average eigenvalue GAMMA=   0.8320
  3.1415  3.1415  2.8490  1.7367  1.7367  1.0754  1.0754  0.8588  0.8588  0.6716
  0.6716  0.5845  0.5845  0.1949  0.1949  0.4734  0.4183  0.3773  0.3773  0.2880
  0.0865  0.0517  0.0517  0.0479  0.0479  0.0360

[...]

----------------------------------------- Iteration    1(  39)  ---------------------------------------

 eigenvalue-minimisations  :   870
 total energy-change (2. order) :-0.1509908E-04  (-0.8113273E-05)
 number of electron     173.9999908 magnetization
 augmentation part       53.0406031 magnetization

 Free energy of the ion-electron system (eV)
  alpha Z        PSCENC =       634.09262729
  Ewald energy   TEWEN  =    -10612.72848518
  -Hartree energ DENC   =     -4465.42698908
  -exchange      EXHF   =         0.00000000
  -V(xc)+E(xc)   XCENC  =       604.91092354
  PAW double counting   =     14879.58872483   -15020.75839005
  entropy T*S    EENTRO =         0.11169646
  eigenvalues    EBANDS =     -1003.17420840
  atomic energy  EATOM  =     14851.27451460
  free energy    TOTEN  =      -132.10958600 eV

  energy without entropy =     -132.22128245  energy(sigma->0) =     -132.14681815

 average (electrostatic) potential at core
  the test charge radii are     1.0103  0.7215  0.7167
  (the norm of the test charge is              1.0000)
       1 -47.5882       2 -47.5849       3 -47.6799       4 -47.6749       5 -48.0187
       6 -48.0186       7 -47.7191       8 -47.7162       9 -74.6661      10 -74.6655
      11 -79.0588      12 -79.0623      13 -78.7154      14 -78.7147      15 -78.8880
      16 -78.8901      17 -78.9002      18 -78.9023      19 -79.0291      20 -79.0282
      21 -78.6356      22 -78.6378      23 -78.9869      24 -78.9871

 E-fermi :   1.6619     XC(G=0):  -9.9811     alpha+bet : -7.6761

 k-point     1 :       0.0000    0.0000    0.0000
  band No.  band energies     occupation
      1     -22.6784      2.00000
      2     -22.5976      2.00000
      3     -22.3637      2.00000
      4     -22.3150      2.00000
      5     -22.2967      2.00000
      6     -22.2657      2.00000
      7     -22.1985      2.00000
      8     -22.1728      2.00000
      9     -22.1518      2.00000
     10     -22.1325      2.00000
     11     -21.9893      2.00000
     12     -21.9878      2.00000
     13     -21.8883      2.00000
     14     -21.8855      2.00000
     15     -16.7514      2.00000
     16     -16.7446      2.00000
     17      -6.1355      2.00000
     18      -5.7865      2.00000
     19      -5.3756      2.00000
     20      -5.2280      2.00000
     21      -5.1781      2.00000
     22      -5.0588      2.00000
     23      -5.0048      2.00000
     24      -4.9367      2.00000
     25      -4.8734      2.00000
     26      -4.8345      2.00000
     27      -4.7106      2.00000
     28      -4.5750      2.00000
     29      -4.5608      2.00000
     30      -4.5382      2.00000
     31      -4.4191      2.00000
     32      -4.4108      2.00000
     33      -4.3552      2.00000
     34      -4.3170      2.00000
     35      -4.2838      2.00000
     36      -4.2554      2.00000
     37      -4.2083      2.00000
     38      -4.1887      2.00000
     39      -4.0459      2.00000
     40      -4.0380      2.00000
     41      -3.9939      2.00000
     42      -3.9443      2.00000
     43      -3.9329      2.00000
     44      -3.8827      2.00000
     45      -3.7505      2.00000
     46      -3.6558      2.00000
     47      -3.4441      2.00000
     48      -3.4204      2.00000
     49      -3.3342      2.00000
     50      -3.2566      2.00000
     51      -3.0824      2.00000
     52      -3.0227      2.00000
     53      -2.9724      2.00000
     54      -2.9423      2.00000
     55      -2.8178      2.00000
     56      -2.7420      2.00000
     57      -2.7197      2.00000
     58      -2.6860      2.00000
     59      -2.5085      2.00000
     60      -2.4569      2.00000
[...]
     90       1.8147      0.03944
     91       1.8782     -0.06327
     92       1.9188     -0.06990
     93       1.9505     -0.06019
     94       1.9933     -0.04091
     95       2.0797     -0.01187
     96       2.0972     -0.00868
     97       2.3526     -0.00001
     98       2.4026     -0.00000
     99       2.7208     -0.00000
    100       2.8291     -0.00000
    101       2.8883     -0.00000
    102       2.8933     -0.00000
    103       3.0200     -0.00000
    104       3.1723     -0.00000

[...]

 k-point     8 :       0.5000    0.5000    0.5000
  band No.  band energies     occupation
      1     -22.4408      2.00000
      2     -22.4385      2.00000
      3     -22.3903      2.00000
      4     -22.3894      2.00000
      5     -22.3177      2.00000
      6     -22.3172      2.00000
      7     -22.2436      2.00000
      8     -22.2420      2.00000
      9     -22.1518      2.00000
     10     -22.1505      2.00000
     11     -22.0009      2.00000
     12     -22.0000      2.00000
     13     -21.9149      2.00000
     14     -21.9130      2.00000
     15     -16.7564      2.00000
     16     -16.7564      2.00000
     17      -5.6489      2.00000
     18      -5.6483      2.00000
     19      -5.5315      2.00000
     20      -5.5305      2.00000
     21      -5.2911      2.00000
     22      -5.2908      2.00000
     23      -5.1629      2.00000
     24      -5.1625      2.00000
     25      -4.8817      2.00000
     26      -4.8809      2.00000
     27      -4.7280      2.00000
     28      -4.7278      2.00000
     29      -4.5216      2.00000
     30      -4.5214      2.00000
     31      -4.4040      2.00000
     32      -4.4032      2.00000
     33      -4.2166      2.00000
     34      -4.2157      2.00000
     35      -4.1008      2.00000
     36      -4.1006      2.00000
     37      -4.0720      2.00000
     38      -4.0715      2.00000
     39      -3.9918      2.00000
     40      -3.9916      2.00000
     41      -3.9055      2.00000
     42      -3.9049      2.00000
     43      -3.6625      2.00000
     44      -3.6620      2.00000
     45      -3.4083      2.00000
     46      -3.4077      2.00000
     47      -3.3656      2.00000
     48      -3.3653      2.00000
     49      -3.2683      2.00000
     50      -3.2672      2.00000
     51      -3.1568      2.00000
     52      -3.1554      2.00000
     53      -3.0293      2.00000
     54      -3.0290      2.00000
     55      -2.9517      2.00000
     56      -2.9514      2.00000
     57      -2.7652      2.00000
     58      -2.7650      2.00000
     59      -2.7421      2.00000
     60      -2.7416      2.00000
[...]
     90       1.7932      0.11250
     91       1.9166     -0.07023
     92       1.9183     -0.06999
     93       2.0145     -0.03178
     94       2.0146     -0.03175
     95       2.1120     -0.00656
     96       2.1146     -0.00624
     97       2.3410     -0.00002
     98       2.3436     -0.00002
     99       2.5009     -0.00000
    100       2.5017     -0.00000
    101       2.6589     -0.00000
    102       2.6601     -0.00000
    103       3.0330     -0.00000
    104       3.0341     -0.00000

 soft charge-density along one line, spin component           1
         0         1         2         3         4         5         6         7         8         9
 total charge-density along one line

------------------------ aborting loop because EDIFF is reached ----------------------------------------

  FORCE on cell =-STRESS in cart. coord.  units (eV):
  Direction    XX          YY          ZZ          XY          YZ          ZX
  Alpha Z   634.09263   634.09263   634.09263
  Ewald   -3653.97460 -3842.38033 -3116.40590     0.00000    -0.00000  -362.79837
  Hartree  1428.93076  1322.80158  1713.59526     0.14465     0.06016  -206.62164
  E(xc)    -922.98092  -923.27565  -922.24902     0.00094     0.00418    -0.46284
  Local    -349.83778   -63.83095 -1144.59204    -0.17172    -0.04024   553.81288
  n-local  -851.84251  -852.20660  -849.82499    -0.00254    -0.00013    -0.84263
  augment   568.26184   569.68038   563.20908    -0.00551    -0.01221     2.29115
  Kinetic  3098.79919  3108.05453  3067.30227     0.00701    -0.01560    17.74090
  Fock        0.00000     0.00000     0.00000     0.00000     0.00000     0.00000
  Total     -48.55139   -47.06442   -54.87271    -0.02717    -0.00384     3.11946
  in kB    -260.37542  -252.40101  -294.27595    -0.14571    -0.02061    16.72932

 VOLUME and BASIS-vectors are now :
  energy-cutoff  :      400.00
  volume of cell :      298.75
      direct lattice vectors                 reciprocal lattice vectors
     5.735919000  0.000000000 -0.790267000     0.174339979  0.000000000  0.000000000
     0.000000000  4.785442000  0.000000000     0.000000000  0.208967113  0.000000000
     0.000000000  0.000000000 10.883966000     0.012658541  0.000000000  0.091878273

  length of vectors
     5.790102651  4.785442000 10.883966000     0.174339979  0.208967113  0.092746190

 FORCES acting on ions
    electron-ion (+dipol)            ewald-force                    non-local-force                 convergence-correction
   -.378E+00 -.269E+01 0.815E+01   0.468E+00 0.280E+01 -.832E+01   0.749E-01 -.124E+00 -.398E-01   -.232E-01 0.781E-03 0.114E+00
   -.356E+00 0.269E+01 0.836E+01   0.468E+00 -.280E+01 -.832E+01   0.756E-01 0.123E+00 -.401E-01   -.456E-01 0.191E-04 -.949E-01
   -.235E+01 -.122E+02 -.171E+01   0.491E+01 0.104E+02 0.874E+00   -.156E+01 0.115E+01 0.313E+00   -.464E-01 -.698E-02 -.186E+00
   -.237E+01 0.122E+02 -.210E+01   0.491E+01 -.104E+02 0.874E+00   -.155E+01 -.115E+01 0.307E+00   -.285E-01 -.368E-02 0.201E+00
   -.207E+01 0.277E+01 0.103E+02   0.266E+01 -.414E+01 -.783E+01   -.509E+00 0.124E+01 -.224E+01   0.351E-01 -.107E-01 -.161E+00
   -.208E+01 -.276E+01 0.100E+02   0.266E+01 0.414E+01 -.783E+01   -.508E+00 -.124E+01 -.224E+01   0.384E-01 -.783E-02 0.966E-01
   0.829E+01 -.133E-01 -.894E+01   -.103E+02 -.225E+01 0.750E+01   0.980E+00 0.104E+01 0.750E+00   0.627E-01 -.338E-02 0.182E+00
   0.832E+01 0.183E-01 -.855E+01   -.103E+02 0.225E+01 0.750E+01   0.979E+00 -.104E+01 0.752E+00   0.290E-01 0.416E-03 -.206E+00
   -.209E+02 0.380E+02 -.619E+02   0.221E+02 -.409E+02 0.672E+02   -.175E+01 0.301E+01 -.397E+01   0.177E+00 -.114E+00 -.318E+00
   -.207E+02 -.378E+02 -.623E+02   0.221E+02 0.409E+02 0.672E+02   -.175E+01 -.300E+01 -.397E+01   -.259E-01 -.540E-01 0.659E-01
   -.364E+02 0.236E+02 0.321E+02   0.381E+02 -.225E+02 -.344E+02   -.155E+01 -.129E+01 0.194E+01   0.177E+00 -.193E+00 0.185E+00
   -.362E+02 -.234E+02 0.323E+02   0.381E+02 0.225E+02 -.344E+02   -.156E+01 0.129E+01 0.193E+01   0.596E-01 -.877E-02 0.302E-01
   0.176E+02 -.131E+02 0.257E+02   -.173E+02 0.137E+02 -.281E+02   -.989E-01 -.102E+01 0.270E+01   -.224E+00 0.108E+00 0.640E-01
   0.173E+02 0.128E+02 0.254E+02   -.173E+02 -.137E+02 -.281E+02   -.104E+00 0.102E+01 0.270E+01   0.962E-01 0.150E+00 0.360E+00
   -.198E+02 0.127E+02 -.263E+02   0.201E+02 -.131E+02 0.275E+02   -.601E+00 0.659E+00 -.146E+01   0.740E-01 -.222E-01 0.555E-01
   -.194E+02 -.124E+02 -.257E+02   0.201E+02 0.131E+02 0.275E+02   -.594E+00 -.660E+00 -.146E+01   -.300E+00 -.279E+00 -.475E+00
   0.328E+02 -.306E+02 -.228E+02   -.346E+02 0.318E+02 0.238E+02   0.189E+01 -.149E+01 0.353E-01   -.211E+00 0.256E+00 -.461E+00
   0.326E+02 0.304E+02 -.233E+02   -.346E+02 -.318E+02 0.238E+02   0.189E+01 0.150E+01 0.273E-01   -.411E-01 -.129E-01 0.102E+00
   0.114E+02 0.642E+01 0.190E+02   -.131E+02 -.778E+01 -.212E+02   0.130E+01 0.199E+01 0.191E+01   -.419E-01 -.103E+00 0.282E+00
   0.115E+02 -.621E+01 0.192E+02   -.131E+02 0.778E+01 -.212E+02   0.129E+01 -.199E+01 0.193E+01   -.146E+00 -.103E+00 0.136E+00
   0.194E+02 -.277E+02 0.430E+02   -.196E+02 0.279E+02 -.418E+02   0.346E+00 -.186E+00 -.224E+01   -.339E-01 0.393E-01 0.203E+00
   0.192E+02 0.275E+02 0.432E+02   -.196E+02 -.279E+02 -.418E+02   0.342E+00 0.184E+00 -.224E+01   0.209E+00 0.188E+00 0.630E-01
   -.638E+01 0.337E+01 -.149E+02   0.655E+01 -.482E+01 0.148E+02   0.149E+00 0.989E+00 0.590E+00   0.675E-01 0.323E-01 -.236E-02
   -.645E+01 -.352E+01 -.147E+02   0.655E+01 0.482E+01 0.148E+02   0.155E+00 -.994E+00 0.592E+00   0.137E+00 0.128E+00 -.260E+00
   0.267E+01 0.256E-01 0.346E+01   0.355E-13 0.915E-13 0.782E-13   -.266E+01 0.414E-02 -.341E+01   -.419E-02 -.212E-01 -.256E-01

 POSITION                                       TOTAL-FORCE (eV/Angst)
      1.41674      1.18921      7.92678         0.141200     -0.013261     -0.094822
      1.41674      3.59623      2.48480         0.141656      0.012534     -0.094600
      2.95318      1.17232      5.02196         0.953977     -0.646150     -0.713905
      2.95318      3.61312     10.46394         0.960260      0.649107     -0.718034
      4.32339      1.10675      2.28709         0.110283     -0.138499      0.067049
      4.32339      3.67869      7.72908         0.112695      0.138801      0.063979
      5.68119      1.15507     10.06346        -0.985869     -1.222424     -0.509856
      5.68119      3.63037      4.62148        -0.991537      1.226362     -0.510198
      4.46583      0.27984      3.92608        -0.392617     -0.093945      1.008034
      4.46583      4.50560      9.36806        -0.390420      0.095274      1.007047
      0.07858      0.27543      1.97861         0.342819     -0.351835     -0.195349
      0.07858      4.51001      7.42059         0.341543      0.350989     -0.199483
      1.27480      2.15077      6.03698         0.052277     -0.266072      0.348366
      1.27480      2.63467      0.59499         0.049869      0.263246      0.352810
      1.60166      0.24763      9.81475        -0.201753      0.269575     -0.202348
      1.60166      4.53781      4.37277        -0.197509     -0.267933     -0.202964
      2.76400      2.17034      3.05678        -0.214259     -0.025180      0.629035
      2.76400      2.61510      8.49876        -0.214667      0.023380      0.622777
      2.99722      0.17036      6.92466        -0.381460      0.525900     -0.002235
      2.99722      4.61508      1.48267        -0.381319     -0.523613      0.008542
      4.14336      2.12005      0.42061         0.181137      0.055043     -0.786120
      4.14336      2.66540      5.86260         0.177580     -0.058497     -0.789401
      5.58353      2.18458      8.15127         0.392457     -0.433171      0.455568
      5.58353      2.60086      2.70929         0.393656      0.430370      0.456105
    total drift:                                0.006673      0.008471      0.022877

  FREE ENERGIE OF THE ION-ELECTRON SYSTEM (eV)
  free  energy   TOTEN  =      -132.10958600 eV

  energy  without entropy=     -132.22128245  energy(sigma->0) =     -132.14681815

 Quasi-Newton relaxation of ions (Broydens 2nd method)
  g(Force)  = 0.822E+00   g(Stress)= 0.000E+00

 Reset! Starting new Quasi-Newton update for ions