 vasp.5.3.5 31Mar14 (build Aug 29 2014 19:41:47) complex

 executed on             LinuxIFC date 2019.01.22  16:52:54

 INCAR:
 POTCAR:    PAW_PBE Fe 06Sep2000
 POTCAR:    PAW_PBE O 08Apr2002
 POTCAR:    PAW_PBE F 08Apr2002
 POTCAR:    PAW_PBE Fe 06Sep2000
   VRHFIN =Fe:  d7 s1

   TITEL  = PAW_PBE Fe 06Sep2000
   POMASS =   55.847; ZVAL   =    8.000    mass and valenz
   ENMAX  =  267.882; ENMIN  =  200.911 eV

 POTCAR:    PAW_PBE O 08Apr2002
   VRHFIN =O: s2p4

   TITEL  = PAW_PBE O 08Apr2002
   POMASS =   16.000; ZVAL   =    6.000    mass and valenz
   ENMAX  =  400.000; ENMIN  =  300.000 eV

 POTCAR:    PAW_PBE F 08Apr2002
   VRHFIN =F: s2p5

   TITEL  = PAW_PBE F 08Apr2002
   POMASS =   18.998; ZVAL   =    7.000    mass and valenz
   ENMAX  =  400.000; ENMIN  =  300.000 eV

 Optimization of the real space projectors (new method)

 maximal supplied QI-value         = 16.25
 optimisation between [QCUT,QGAM] = [ 10.24, 20.48] = [ 29.35,117.42] Ry
 Optimized for a Real-space Cutoff    1.51 Angstroem

   l    n(q)    QCUT    max X(q) W(low)/X(q) W(high)/X(q)  e(spline)
   2      8    10.239    80.901    0.43E-03    0.67E-03    0.20E-06
   2      8    10.239    75.754    0.44E-03    0.68E-03    0.20E-06
   0      9    10.239    58.752    0.81E-04    0.41E-04    0.71E-07
   0      9    10.239    30.679    0.75E-04    0.39E-04    0.65E-07
   1      9    10.239    17.977    0.50E-04    0.16E-03    0.11E-06
   1      9    10.239    13.559    0.39E-04    0.13E-03    0.98E-07
 Optimization of the real space projectors (new method)

[...]

   l    n(q)    QCUT    max X(q) W(low)/X(q) W(high)/X(q)  e(spline)
   0      8    10.150    20.381    0.22E-03    0.32E-03    0.29E-06
   0      8    10.150    15.268    0.23E-03    0.35E-03    0.30E-06
   1      8    10.150     5.964    0.46E-03    0.53E-03    0.21E-06
   1      8    10.150     5.382    0.38E-03    0.45E-03    0.19E-06
 Optimization of the real space projectors (new method)

 maximal supplied QI-value         = 24.76
 optimisation between [QCUT,QGAM] = [ 10.15, 20.30] = [ 28.85,115.39] Ry
 Optimized for a Real-space Cutoff    1.38 Angstroem

   l    n(q)    QCUT    max X(q) W(low)/X(q) W(high)/X(q)  e(spline)
   0      8    10.150    14.049    0.15E-03    0.22E-03    0.24E-06
   0      8    10.150     8.945    0.21E-03    0.31E-03    0.30E-06
   1      8    10.150     7.086    0.42E-03    0.48E-03    0.23E-06
   1      8    10.150     6.747    0.37E-03    0.43E-03    0.21E-06
  PAW_PBE Fe 06Sep2000                  :
  PAW_PBE O 08Apr2002                   :
  PAW_PBE F 08Apr2002                   :

 POSCAR: Fe12 O2 F22
  positions in direct lattice
 exchange correlation table for  LEXCH =        8
   RHO(1)=    0.500       N(1)  =     2000
   RHO(2)=  100.500       N(2)  =     4000

 ion  position               nearest neighbor table
   1  0.000  0.167  0.501-  19 2.02  15 2.02  31 2.14  31 2.14  27 2.15  27 2.15
   2  0.000  0.833  0.501-  20 2.02  16 2.02  32 2.14  32 2.14  28 2.15  28 2.15
   3  0.000  0.667  0.001-  21 2.02  17 2.02  33 2.14  33 2.14  29 2.15  29 2.15
   4  0.000  0.333  0.001-  22 2.02  18 2.02  34 2.14  34 2.14  30 2.15  30 2.15
   5  0.500  0.166  0.000-  23 2.01  34 2.05  19 2.12  19 2.12  15 2.13  15 2.13
   6  0.500  0.834  0.000-  24 2.01  33 2.05  20 2.12  20 2.12  16 2.13  16 2.13
   7  0.500  0.666  0.500-  25 2.01  32 2.05  21 2.12  21 2.12  17 2.13  17 2.13
   8  0.500  0.334  0.500-  26 2.01  31 2.05  22 2.12  22 2.12  18 2.13  18 2.13
   9  0.000  0.000  0.012-  13 2.05  23 2.15  24 2.15  23 2.15  24 2.15  35 2.16
  10  0.000  0.500  0.512-  14 2.05  25 2.15  26 2.15  25 2.15  26 2.15  36 2.16
  11  0.500  0.000  0.472-  13 1.95  13 1.95  28 2.03  27 2.03  35 2.22  35 2.22
  12  0.500  0.500  0.972-  14 1.95  14 1.95  30 2.03  29 2.03  36 2.22  36 2.22
  13  0.000  0.000  0.314-  11 1.95  11 1.95   9 2.05
  14  0.000  0.500  0.814-  12 1.95  12 1.95  10 2.05
  15  0.000  0.168  0.203-   1 2.02   5 2.13   5 2.13
  16  0.000  0.832  0.203-   2 2.02   6 2.13   6 2.13
  17  0.000  0.668  0.703-   3 2.02   7 2.13   7 2.13
  18  0.000  0.332  0.703-   4 2.02   8 2.13   8 2.13
  19  0.000  0.168  0.799-   1 2.02   5 2.12   5 2.12
  20  0.000  0.832  0.799-   2 2.02   6 2.12   6 2.12
  21  0.000  0.668  0.299-   3 2.02   7 2.12   7 2.12
  22  0.000  0.332  0.299-   4 2.02   8 2.12   8 2.12
  23  0.500  0.068  0.996-   5 2.01   9 2.15   9 2.15
  24  0.500  0.932  0.996-   6 2.01   9 2.15   9 2.15
  25  0.500  0.568  0.496-   7 2.01  10 2.15  10 2.15
  26  0.500  0.432  0.496-   8 2.01  10 2.15  10 2.15
  27  0.500  0.098  0.506-  11 2.03   1 2.15   1 2.15
  28  0.500  0.902  0.506-  11 2.03   2 2.15   2 2.15
  29  0.500  0.598  0.006-  12 2.03   3 2.15   3 2.15
  30  0.500  0.402  0.006-  12 2.03   4 2.15   4 2.15
  31  0.500  0.234  0.502-   8 2.05   1 2.14   1 2.14
  32  0.500  0.766  0.502-   7 2.05   2 2.14   2 2.14
  33  0.500  0.734  0.002-   6 2.05   3 2.14   3 2.14
  34  0.500  0.266  0.002-   5 2.05   4 2.14   4 2.14
  35  0.000  0.000  0.695-   9 2.16  11 2.22  11 2.22
  36  0.000  0.500  0.195-  10 2.16  12 2.22  12 2.22

IMPORTANT INFORMATION: All symmetrisations will be switched off!
NOSYMM: (Re-)initialisation of all symmetry stuff for point group C_1.

 KPOINTS: Automatic mesh

Automatic generation of k-mesh.
Space group operators:
 irot       det(A)        alpha          n_x          n_y          n_z        tau_x        tau_y        tau_z
    1     1.000000     0.000001     1.000000     0.000000     0.000000     0.000000     0.000000     0.000000

 Subroutine IBZKPT returns following result:

 Found      8 irreducible k-points:

 Following reciprocal coordinates:
            Coordinates               Weight
  0.000000  0.000000  0.000000      1.000000
  0.500000  0.000000  0.000000      1.000000
  0.000000  0.500000  0.000000      1.000000
  0.500000  0.500000  0.000000      1.000000
  0.000000  0.000000  0.500000      1.000000
  0.500000  0.000000  0.500000      1.000000
  0.000000  0.500000  0.500000      1.000000
  0.500000  0.500000  0.500000      1.000000

 Following cartesian coordinates:
            Coordinates               Weight
  0.000000  0.000000  0.000000      1.000000
  0.153722  0.000000  0.000000      1.000000
  0.000000  0.024332  0.000000      1.000000
  0.153722  0.024332  0.000000      1.000000
  0.000000  0.000000  0.073614      1.000000
  0.153722  0.000000  0.073614      1.000000
  0.000000  0.024332  0.073614      1.000000
  0.153722  0.024332  0.073614      1.000000

 I would recommend the setting:
   dimension x,y,z NGX =    16 NGY =  101 NGZ =   33
 SYSTEM =  tssm
 POSCAR =  Fe12 O2 F22

 Startparameter for this run:
   NWRITE =      2    write-flag & timer
   PREC   = normal    normal or accurate (medium, high low for compatibility)
   ISTART =      0    job   : 0-new  1-cont  2-samecut
   ICHARG =      2    charge: 1-file 2-atom 10-const
   ISPIN  =      1    spin polarized calculation?
   LNONCOLLINEAR =      F non collinear calculations
   LSORBIT =      F    spin-orbit coupling
   INIWAV =      1    electr: 0-lowe 1-rand  2-diag
   LASPH  =      F    aspherical Exc in radial PAW
   METAGGA=      F    non-selfconsistent MetaGGA calc.

 Electronic Relaxation 1
   ENCUT  =  400.0 eV  29.40 Ry    5.42 a.u.   5.30 33.51 11.08*2*pi/ulx,y,z
   ENINI  =  400.0     initial cutoff
   ENAUG  =  613.6 eV  augmentation charge cutoff
   NELM   =    300;   NELMIN=  2; NELMDL=-12     # of ELM steps
   EDIFF  = 0.1E-03   stopping-criterion for ELM
   LREAL  =      T    real-space projection
   NLSPLINE    = F    spline interpolate recip. space projectors
   LCOMPAT=      F    compatible to vasp.4.4
   GGA_COMPAT  = T    GGA compatible to vasp.4.4-vasp.4.6
   LMAXPAW     = -100 max onsite density
   LMAXMIX     =    2 max onsite mixed and CHGCAR
   VOSKOWN=      0    Vosko Wilk Nusair interpolation
   ROPT   =   -0.00050  -0.00050  -0.00050
 Ionic relaxation
   EDIFFG = 0.1E-02   stopping-criterion for IOM
   NSW    =      1    number of steps for IOM
   NBLOCK =      1;   KBLOCK =      1    inner block; outer block
   IBRION =      1    ionic relax: 0-MD 1-quasi-New 2-CG
   NFREE  =      0    steps in history (QN), initial steepest desc. (CG)
   ISIF   =      2    stress and relaxation
   IWAVPR =     11    prediction:  0-non 1-charg 2-wave 3-comb
   ISYM   =      0    0-nonsym 1-usesym 2-fastsym
   LCORR  =      T    Harris-Foulkes like correction to forces

   POTIM  = 0.5000    time-step for ionic-motion
   TEIN   =    0.0    initial temperature
   TEBEG  =    0.0;   TEEND  =   0.0 temperature during run
   SMASS  =  -3.00    Nose mass-parameter (am)
   estimated Nose-frequenzy (Omega)   =  0.10E-29 period in steps =****** mass=  -0.242E-27a.u.
   SCALEE = 1.0000    scale energy and forces
   NPACO  =    256;   APACO  = 16.0  distance and # of slots for P.C.
   PSTRESS=    0.0 pullay stress

  Mass of Ions in am
   POMASS =  55.85 16.00 19.00
  Ionic Valenz
   ZVAL   =   8.00  6.00  7.00
  Atomic Wigner-Seitz radii
  virtual crystal weights
   VCA    =   1.00  1.00  1.00
   NELECT =     262.0000    total number of electrons
   NUPDOWN=      -1.0000    fix difference up-down

 DOS related values:
   EMIN   =  10.00;   EMAX   =-10.00  energy-range for DOS
   EFERMI =   0.00
   ISMEAR =     1;   SIGMA  =   0.20  broadening in eV -4-tet -1-fermi 0-gaus

 Electronic relaxation 2 (details)
   IALGO  =     48    algorithm
   LDIAG  =      T    sub-space diagonalisation (order eigenvalues)
   LSUBROT=      F    optimize rotation matrix (better conditioning)
   TURBO    =      0    0=normal 1=particle mesh
   IRESTART =      0    0=no restart 2=restart with 2 vectors
   NREBOOT  =      0    no. of reboots
   NMIN     =      0    reboot dimension
   EREF     =   0.00    reference energy to select bands
   IMIX   =      4    mixing-type and parameters
     AMIX     =   0.40;   BMIX     =  1.00
     AMIX_MAG =   1.60;   BMIX_MAG =  1.00
     AMIN     =   0.01
     WC   =   100.;   INIMIX=   1;  MIXPRE=   1;  MAXMIX= -45

 Intra band minimization:
   WEIMIN = 0.0010     energy-eigenvalue tresh-hold
   EBREAK =  0.16E-06  absolut break condition
   DEPER  =   0.30     relativ break condition

   TIME   =   0.40     timestep for ELM

  volume/ion in A,a.u.               =      12.61        85.10
  Fermi-wavevector in a.u.,A,eV,Ry     =   1.362994  2.575684 25.276243  1.857751
  Thomas-Fermi vector in A             =   2.489435

 Write flags
   LWAVE  =      F    write WAVECAR
   LCHARG =      T    write CHGCAR
   LVTOT  =      F    write LOCPOT, total local potential
   LVHAR  =      F    write LOCPOT, Hartree potential only
   LELF   =      F    write electronic localiz. function (ELF)
   LORBIT =      0    0 simple, 1 ext, 2 COOP (PROOUT)

 Dipole corrections
   LMONO  =      F    monopole corrections only (constant potential shift)
   LDIPOL =      F    correct potential (dipole corrections)
   IDIPOL =      0    1-x, 2-y, 3-z, 4-all directions
   EPSILON=  1.0000000 bulk dielectric constant

 Exchange correlation treatment:
   GGA     =    --    GGA type
   VOSKOWN=      0    Vosko Wilk Nusair interpolation
   LHFCALC =     F    Hartree Fock is set to
[...]
  PAW double counting   =     22381.54877804   -22596.13642752
  entropy T*S    EENTRO =         0.02873899
  eigenvalues    EBANDS =     -1538.73436093
  atomic energy  EATOM  =     22504.09828397
  free energy    TOTEN  =      -194.57387739 eV

  energy without entropy =     -194.60261638  energy(sigma->0) =     -194.58345705

 average (electrostatic) potential at core
  the test charge radii are     1.0103  0.7215  0.7167
  (the norm of the test charge is              1.0000)
       1 -47.6368       2 -47.6396       3 -47.6379       4 -47.6416       5 -47.6519
       6 -47.6520       7 -47.6536       8 -47.6518       9 -47.7010      10 -47.6989
      11 -48.0524      12 -48.0516      13 -74.5790      14 -74.5783      15 -79.1680
      16 -79.1695      17 -79.1699      18 -79.1698      19 -79.2011      20 -79.2026
      21 -79.2030      22 -79.2029      23 -79.0582      24 -79.0588      25 -79.0584
      26 -79.0583      27 -78.9880      28 -78.9888      29 -78.9882      30 -78.9885
      31 -79.0785      32 -79.0796      33 -79.0786      34 -79.0785      35 -78.1166
      36 -78.1168

 E-fermi :   1.5989     XC(G=0):  -9.9012     alpha+bet : -7.5542

 k-point     1 :       0.0000    0.0000    0.0000
  band No.  band energies     occupation
      1     -22.8516      2.00000
      2     -22.8385      2.00000
      3     -22.7205      2.00000
      4     -22.6998      2.00000
      5     -22.4775      2.00000
      6     -22.4691      2.00000
      7     -22.4505      2.00000
      8     -22.4258      2.00000
      9     -22.4180      2.00000
     10     -22.4170      2.00000
     11     -22.4031      2.00000
     12     -22.4009      2.00000
     13     -22.3449      2.00000
     14     -22.3387      2.00000
     15     -22.2866      2.00000
     16     -22.2856      2.00000
     17     -22.2776      2.00000
     18     -22.2772      2.00000
     19     -22.2537      2.00000
     20     -22.2333      2.00000
     21     -21.4012      2.00000
     22     -21.3997      2.00000
     23     -16.7054      2.00000
     24     -16.7047      2.00000
     25      -6.3001      2.00000
     26      -6.2056      2.00000
     27      -6.0542      2.00000
     28      -5.9814      2.00000
     29      -5.7580      2.00000
     30      -5.5901      2.00000
     31      -5.5049      2.00000
     32      -5.5035      2.00000
     33      -5.3928      2.00000
     34      -5.1917      2.00000
     35      -4.7166      2.00000
     36      -4.7117      2.00000
     37      -4.6741      2.00000
     38      -4.6313      2.00000
     39      -4.5331      2.00000
     40      -4.4680      2.00000
     41      -4.4410      2.00000
     42      -4.4409      2.00000
     43      -4.4394      2.00000
     44      -4.4349      2.00000
     45      -4.4231      2.00000
     46      -4.4221      2.00000
     47      -4.4195      2.00000
     48      -4.3464      2.00000
     49      -4.3374      2.00000
     50      -4.3351      2.00000
     51      -4.3157      2.00000
     52      -4.3006      2.00000
     53      -4.2713      2.00000
     54      -4.2495      2.00000
     55      -4.2327      2.00000
     56      -4.2318      2.00000
     57      -4.2268      2.00000
     58      -4.2097      2.00000
     59      -4.1715      2.00000
     60      -4.1106      2.00000
[...]
    143       2.2380     -0.00006
    144       2.3125     -0.00001
    145       2.3153     -0.00001
    146       2.3282     -0.00000
    147       2.3990     -0.00000
    148       2.4004     -0.00000
    149       2.4009     -0.00000
    150       2.4019     -0.00000
    151       2.4044     -0.00000
    152       2.8074     -0.00000
    153       2.9009     -0.00000
    154       3.0604     -0.00000
    155       3.1868     -0.00000
    156       3.1872     -0.00000
    157       4.0554     -0.00000

[...]

 k-point     8 :       0.5000    0.5000    0.5000
  band No.  band energies     occupation
      1     -22.5018      2.00000
      2     -22.5012      2.00000
      3     -22.5010      2.00000
      4     -22.4996      2.00000
      5     -22.4400      2.00000
      6     -22.4397      2.00000
      7     -22.4395      2.00000
      8     -22.4381      2.00000
      9     -22.3916      2.00000
     10     -22.3915      2.00000
     11     -22.3780      2.00000
     12     -22.3777      2.00000
     13     -22.3481      2.00000
     14     -22.3479      2.00000
     15     -22.2935      2.00000
     16     -22.2935      2.00000
     17     -22.2599      2.00000
     18     -22.2598      2.00000
     19     -22.2226      2.00000
     20     -22.2225      2.00000
     21     -21.3550      2.00000
     22     -21.3549      2.00000
     23     -16.5478      2.00000
     24     -16.5473      2.00000
     25      -5.6091      2.00000
     26      -5.6085      2.00000
     27      -5.5477      2.00000
     28      -5.5471      2.00000
     29      -5.3805      2.00000
     30      -5.3804      2.00000
     31      -5.3556      2.00000
     32      -5.3554      2.00000
     33      -5.2848      2.00000
     34      -5.2846      2.00000
     35      -5.2411      2.00000
     36      -5.2408      2.00000
     37      -5.0769      2.00000
     38      -5.0767      2.00000
     39      -5.0570      2.00000
     40      -5.0564      2.00000
     41      -4.9586      2.00000
     42      -4.9586      2.00000
     43      -4.9259      2.00000
     44      -4.9258      2.00000
     45      -4.7964      2.00000
     46      -4.7963      2.00000
     47      -4.7771      2.00000
     48      -4.7769      2.00000
     49      -4.6621      2.00000
     50      -4.6614      2.00000
     51      -4.5501      2.00000
     52      -4.5496      2.00000
     53      -4.5352      2.00000
     54      -4.5351      2.00000
     55      -4.4371      2.00000
     56      -4.4368      2.00000
     57      -4.3306      2.00000
     58      -4.3305      2.00000
     59      -4.3050      2.00000
     60      -4.3049      2.00000
[...]
    143       1.8116     -0.06107
    144       1.8126     -0.06176
    145       2.4163     -0.00000
    146       2.4166     -0.00000
    147       2.4620     -0.00000
    148       2.4623     -0.00000
    149       2.6888     -0.00000
    150       2.6908     -0.00000
    151       2.7067     -0.00000
    152       2.7091     -0.00000
    153       2.7116     -0.00000
    154       2.7119     -0.00000
    155       2.7498     -0.00000
    156       2.7505     -0.00000
    157       9.1004      0.00000

 soft charge-density along one line, spin component           1
         0         1         2         3         4         5         6         7         8         9
 total charge-density along one line

------------------------ aborting loop because EDIFF is reached ----------------------------------------

  FORCE on cell =-STRESS in cart. coord.  units (eV):
  Direction    XX          YY          ZZ          XY          YZ          ZX
  Alpha Z   943.57653   943.57653   943.57653
  Ewald   -4454.50198 -5697.31548 -5839.43667     0.00000     0.00000     0.00000
  Hartree  2776.32296  2056.48784  1981.52887    -0.00001     0.01373    -0.00009
  E(xc)   -1393.21473 -1394.60626 -1395.40005     0.00001    -0.00047     0.00004
  Local   -2144.36740  -220.56947   -32.16868    -0.00000    -0.01206     0.00043
  n-local -1297.94700 -1297.88908 -1298.43802     0.00001     0.00095     0.00004
  augment   855.65874   858.94877   868.59182     0.00002     0.00089    -0.00009
  Kinetic  4633.15518  4681.99632  4694.03401     0.00000     0.00436    -0.00020
  Fock        0.00000     0.00000     0.00000     0.00000     0.00000     0.00000
  Total     -81.31771   -69.37082   -77.71218     0.00004     0.00740     0.00012
  in kB    -286.97981  -244.81784  -274.25547     0.00013     0.02612     0.00041

 VOLUME and BASIS-vectors are now :
  energy-cutoff  :      400.00
  volume of cell :      453.99
      direct lattice vectors                 reciprocal lattice vectors
     3.252628000  0.000000000  0.000000000     0.307443704  0.000000000  0.000000000
     0.000000000 20.549384000  0.000000000     0.000000000  0.048663259  0.000000000
     0.000000000  0.000000000  6.792211000     0.000000000  0.000000000  0.147227464

  length of vectors
     3.252628000 20.549384000  6.792211000     0.307443704  0.048663259  0.147227464

 FORCES acting on ions
    electron-ion (+dipol)            ewald-force                    non-local-force                 convergence-correction
   -.177E-04 0.209E+02 0.440E+01   -.153E-13 -.208E+02 -.436E+01   0.126E-04 -.290E-01 -.723E-02   0.614E-05 -.540E-01 -.141E-02
   0.143E-05 -.209E+02 0.440E+01   -.158E-13 0.208E+02 -.436E+01   -.180E-04 0.285E-01 -.745E-02   0.168E-04 0.833E-01 -.132E-02
   0.442E-05 0.209E+02 0.440E+01   -.173E-13 -.208E+02 -.436E+01   0.273E-06 -.283E-01 -.710E-02   -.500E-05 -.134E+00 -.574E-02
   0.278E-04 -.207E+02 0.440E+01   -.177E-13 0.208E+02 -.436E+01   -.349E-04 0.277E-01 -.734E-02   0.795E-05 -.853E-01 -.467E-02
   -.871E-05 0.165E+02 -.501E+01   0.471E-13 -.167E+02 0.492E+01   0.419E-04 0.481E+00 0.139E+00   -.286E-04 -.519E-01 -.503E-03
   0.474E-05 -.164E+02 -.501E+01   0.422E-13 0.167E+02 0.492E+01   -.304E-05 -.481E+00 0.139E+00   -.170E-05 -.524E-01 0.126E-02
   0.243E-05 0.166E+02 -.501E+01   0.507E-13 -.167E+02 0.492E+01   -.367E-05 0.483E+00 0.138E+00   -.170E-07 -.139E+00 0.381E-02
   0.126E-04 -.163E+02 -.502E+01   0.459E-13 0.167E+02 0.492E+01   -.152E-04 -.482E+00 0.138E+00   0.170E-05 -.149E+00 0.629E-02
   0.123E-04 -.220E+00 -.829E+00   -.341E-14 -.941E-13 0.356E+01   -.383E-04 -.674E-03 -.148E+01   0.344E-04 0.221E+00 0.295E-01
   -.292E-05 0.310E-01 -.833E+00   0.613E-13 0.122E-12 0.356E+01   -.723E-05 -.583E-04 -.148E+01   0.346E-05 -.311E-01 0.326E-01
   -.282E-05 -.291E+00 -.466E+01   0.129E-13 -.798E-13 0.120E+01   0.175E-04 0.461E-03 0.322E+01   -.114E-04 0.290E+00 0.433E-01
   0.839E-05 -.107E+00 -.460E+01   0.129E-13 0.798E-13 0.120E+01   0.105E-04 0.103E-02 0.322E+01   -.120E-04 0.105E+00 -.126E-01
   -.224E-04 -.203E+00 0.588E+02   0.688E-14 -.492E-13 -.628E+02   0.998E-04 -.480E-03 0.265E+01   -.719E-04 0.202E+00 0.326E+00
   -.798E-04 -.517E-01 0.590E+02   0.112E-13 0.918E-13 -.628E+02   0.450E-04 0.750E-03 0.265E+01   0.353E-04 0.504E-01 0.143E+00
   0.261E-04 0.154E+02 -.208E+02   -.171E-13 -.142E+02 0.207E+02   0.314E-04 -.125E+01 -.663E+00   -.482E-04 -.646E-01 0.179E+00
   0.894E-04 -.153E+02 -.205E+02   -.135E-13 0.142E+02 0.207E+02   0.327E-04 0.125E+01 -.662E+00   -.119E-03 -.439E-02 -.169E+00
   -.138E-04 0.154E+02 -.208E+02   -.177E-13 -.142E+02 0.207E+02   -.281E-04 -.125E+01 -.661E+00   0.390E-04 -.121E+00 0.190E+00
   0.708E-04 -.152E+02 -.202E+02   -.140E-13 0.142E+02 0.207E+02   0.198E-04 0.125E+01 -.659E+00   -.985E-04 -.115E+00 -.423E+00
   -.328E-04 0.117E+02 0.200E+02   -.657E-14 -.106E+02 -.203E+02   0.485E-04 -.119E+01 0.923E+00   -.173E-05 -.599E-01 -.177E+00
   -.744E-04 -.117E+02 0.197E+02   -.417E-14 0.106E+02 -.203E+02   -.358E-04 0.119E+01 0.922E+00   0.103E-03 -.661E-02 0.171E+00
   0.534E-05 0.118E+02 0.201E+02   -.735E-14 -.106E+02 -.203E+02   0.249E-04 -.119E+01 0.921E+00   -.270E-04 -.113E+00 -.188E+00
   -.841E-05 -.115E+02 0.194E+02   -.506E-14 0.106E+02 -.203E+02   -.375E-05 0.119E+01 0.920E+00   0.184E-04 -.124E+00 0.427E+00
   0.116E-03 0.937E+01 0.507E+01   -.140E-13 -.114E+02 -.707E+01   0.252E-04 0.986E+00 0.217E+01   -.126E-03 0.508E+00 -.106E-01
   -.528E-04 -.971E+01 0.507E+01   -.160E-13 0.114E+02 -.707E+01   -.894E-04 -.990E+00 0.217E+01   0.109E-03 -.162E+00 -.841E-02
   -.123E-04 0.100E+02 0.504E+01   -.490E-13 -.114E+02 -.707E+01   0.465E-05 0.987E+00 0.217E+01   0.937E-05 -.163E+00 0.131E-01
   -.101E-04 -.985E+01 0.504E+01   -.509E-13 0.114E+02 -.707E+01   0.249E-04 -.987E+00 0.217E+01   -.388E-05 -.270E-01 0.192E-01
   -.270E-04 0.263E+02 -.735E+01   0.222E-13 -.271E+02 0.104E+02   -.195E-04 0.156E+01 -.315E+01   0.496E-04 0.205E+00 -.172E-01
   0.316E-04 -.268E+02 -.736E+01   0.274E-13 0.271E+02 0.104E+02   -.361E-05 -.155E+01 -.315E+01   -.246E-04 0.337E+00 -.108E-01
   -.376E-04 0.267E+02 -.734E+01   0.182E-13 -.271E+02 0.104E+02   -.204E-04 0.156E+01 -.315E+01   0.546E-04 -.183E+00 -.301E-01
   -.872E-04 -.270E+02 -.735E+01   0.234E-13 0.271E+02 0.104E+02   -.176E-04 -.155E+01 -.314E+01   0.998E-04 0.499E+00 -.194E-01
   -.739E-05 -.169E+02 0.252E+00   -.360E-13 0.181E+02 -.230E+00   0.909E-04 -.142E+01 -.518E-01   -.696E-04 -.314E+00 -.241E-03
   0.210E-04 0.173E+02 0.251E+00   -.344E-13 -.181E+02 -.230E+00   -.224E-09 0.142E+01 -.516E-01   -.271E-04 -.481E-01 0.101E-02
   0.231E-04 -.172E+02 0.254E+00   -.391E-13 0.181E+02 -.230E+00   0.308E-04 -.142E+01 -.526E-01   -.505E-04 -.769E-01 -.131E-02
   0.764E-04 0.178E+02 0.252E+00   -.379E-13 -.181E+02 -.230E+00   -.539E-04 0.142E+01 -.530E-01   -.317E-04 -.584E+00 0.622E-03
   -.137E-04 -.233E+00 -.483E+02   0.195E-13 -.645E-13 0.498E+02   -.302E-04 -.145E-02 -.129E+01   0.430E-04 0.234E+00 -.361E+00
   0.258E-04 -.551E-01 -.485E+02   0.195E-13 0.150E-12 0.498E+02   -.123E-04 -.561E-03 -.128E+01   -.154E-04 0.557E-01 -.162E+00
   0.485E-04 0.715E-01 -.363E+01   -.111E-13 0.146E-12 -.242E-12   0.126E-03 0.997E-03 0.364E+01   -.142E-03 -.724E-01 -.198E-01

 POSITION                                       TOTAL-FORCE (eV/Angst)
      0.00000      3.42597      3.40555         0.000000     -0.076715      0.026794
      0.00000     17.12341      3.40555        -0.000001      0.076876      0.026529
      0.00000     13.70066      0.00945        -0.000001     -0.076739      0.026952
      0.00000      6.84872      0.00945         0.000000      0.076183      0.026760
      1.62631      3.41163      0.00003         0.000004      0.254592      0.050863
      1.62631     17.13775      0.00003        -0.000001     -0.253904      0.050819
      1.62631     13.68632      3.39613        -0.000002      0.254850      0.050872
      1.62631      6.86306      3.39613        -0.000002     -0.254180      0.050802
      0.00000      0.00000      0.08261         0.000007      0.000182      1.276895
      0.00000     10.27469      3.47871        -0.000008     -0.000092      1.281230
      1.62631      0.00000      3.20864         0.000002     -0.000072     -0.190673
      1.62631     10.27469      6.60475         0.000006     -0.000563     -0.193390
      0.00000      0.00000      2.13521         0.000005     -0.000640     -0.991322
      0.00000     10.27469      5.53132        -0.000000     -0.000566     -0.991857
      0.00000      3.45577      1.38085         0.000008     -0.134493     -0.550542
      0.00000     17.09361      1.38085         0.000002      0.134943     -0.549967
      0.00000     13.73046      4.77696        -0.000004     -0.134886     -0.549703
      0.00000      6.81892      4.77696        -0.000009      0.135133     -0.548676
      0.00000      3.46015      5.42933         0.000013     -0.118305      0.522018
      0.00000     17.08924      5.42933        -0.000008      0.117760      0.521452
      0.00000     13.73484      2.03322         0.000002     -0.118271      0.521338
      0.00000      6.81455      2.03322         0.000005      0.118718      0.520275
      1.62631      1.40500      6.76733         0.000015     -0.536701      0.153165
      1.62631     19.14438      6.76733        -0.000034      0.535893      0.152624
      1.62631     11.67969      3.37123         0.000001     -0.534473      0.152675
      1.62631      8.86969      3.37123         0.000010      0.534760      0.152683
      1.62631      2.01762      3.43468         0.000002      0.912331     -0.129456
      1.62631     18.53176      3.43468         0.000002     -0.912430     -0.130147
      1.62631     12.29231      0.03857        -0.000004      0.914224     -0.128623
      1.62631      8.25707      0.03857        -0.000006     -0.913085     -0.129086
      1.62631      4.80979      3.40646         0.000013     -0.524014     -0.029124
      1.62631     15.73960      3.40646        -0.000007      0.523804     -0.028982
      1.62631     15.08448      0.01036         0.000002     -0.525814     -0.029298
      1.62631      5.46490      0.01036        -0.000010      0.525812     -0.029406
      0.00000      0.00000      4.71883        -0.000002     -0.000154     -0.182156
      0.00000     10.27469      1.32272        -0.000003      0.000036     -0.182340
    total drift:                                0.000033      0.000047     -0.012466

  FREE ENERGIE OF THE ION-ELECTRON SYSTEM (eV)
  free  energy   TOTEN  =      -194.57387739 eV

  energy  without entropy=     -194.60261638  energy(sigma->0) =     -194.58345705

 Quasi-Newton relaxation of ions (Broydens 2nd method)
  g(Force)  = 0.668E+00   g(Stress)= 0.000E+00

 Reset! Starting new Quasi-Newton update for ions